     Program PWSCF v.6.5 starts on  2Jun2020 at 13:53:54

     K-points division:     npool     =       2
     R & G space division:  proc/nbgrp/npool/nimage =      16
     Reading input from QE_input_scripts/pw.NiPyC2_P1.pbesol-angles.vc-relax.in

     Current dimensions of program PWSCF are:
     Max number of different atomic species (ntypx) = 10
     Max number of k-points (npk) =  40000
     Max angular momentum in pseudopotentials (lmaxx) =  3

     Parameters for Dispersion (Grimme-D2) Correction:
       atom      VdW radius       C_6

        Ni         2.952        374.666
        O          2.536         24.284
        N          2.640         42.670
        C          2.744         60.710
        H          1.892          4.857

     gamma-point specific algorithms are used

     Subspace diagonalization in iterative solution of the eigenvalue problem:
     a serial algorithm will be used

     Message from routine setup:
     using ibrav=0 with symmetry is DISCOURAGED, use correct ibrav instead

     bravais-lattice index     =            0
     lattice parameter (alat)  =      11.8161  a.u.
     unit-cell volume          =    5429.3114 (a.u.)^3
     number of atoms/cell      =           54
     number of atomic types    =            5
     number of electrons       =       200.00 (up: 102.00, down:  98.00)
     number of Kohn-Sham states=          122
     kinetic-energy cutoff     =     100.0000  Ry
     charge density cutoff     =     400.0000  Ry
     convergence threshold     =      1.0E-06
     mixing beta               =       0.7000
     number of iterations used =            8  local-TF  mixing
     Exchange-correlation= PBESOL
                           (   1   4  10   8   0   0   0)
     nstep                     =          200

     celldm(1)=  11.816080  celldm(2)=   0.000000  celldm(3)=   0.000000
     celldm(4)=   0.000000  celldm(5)=   0.000000  celldm(6)=   0.000000

     crystal axes: (cart. coord. in units of alat)
               a(1) = (   1.000000   0.000000   0.000000 )
               a(2) = (   0.000000   2.002847   0.000000 )
               a(3) = (  -0.036399   0.000000   1.643149 )

     reciprocal axes: (cart. coord. in units 2 pi/alat)
               b(1) = (  1.000000  0.000000  0.022152 )
               b(2) = (  0.000000  0.499289  0.000000 )
               b(3) = (  0.000000  0.000000  0.608588 )

     PseudoPot. # 1 for Ni read from file:
     ./pseudo/Ni.pbesol-n-nc.UPF
     MD5 check sum: 623411631e0c2eb7c0b2b9815547d2d9
     Pseudo is Norm-conserving + core correction, Zval = 10.0
     Generated using "atomic" code by A. Dal Corso v.6.5
     Using radial grid of 1195 points,  2 beta functions with:
                l(1) =   1
                l(2) =   2

     PseudoPot. # 2 for O  read from file:
     ./pseudo/O.pbesol-nc.UPF
     MD5 check sum: 73d10e7e91dbfcbe8a7e362101007f84
     Pseudo is Norm-conserving, Zval =  6.0
     Generated using "atomic" code by A. Dal Corso v.6.5
     Using radial grid of 1095 points,  1 beta functions with:
                l(1) =   1

     PseudoPot. # 3 for N  read from file:
     ./pseudo/N.pbesol-nc.UPF
     MD5 check sum: e18cc5e4b8a5600c1a19b30c2cab1ca0
     Pseudo is Norm-conserving, Zval =  5.0
     Generated using "atomic" code by A. Dal Corso v.6.5
     Using radial grid of 1085 points,  1 beta functions with:
                l(1) =   1

     PseudoPot. # 4 for C  read from file:
     ./pseudo/C.pbesol-nc.UPF
     MD5 check sum: ce26087537ded160c8d400e183a8bf42
     Pseudo is Norm-conserving, Zval =  4.0
     Generated using "atomic" code by A. Dal Corso v.6.5
     Using radial grid of 1073 points,  1 beta functions with:
                l(1) =   1

     PseudoPot. # 5 for H  read from file:
     ./pseudo/H.pbesol-n-nc.UPF
     MD5 check sum: 7995ef24074557c85b430109caaacc09
     Pseudo is Norm-conserving, Zval =  1.0
     Generated using "atomic" code by A. Dal Corso v.6.5
     Using radial grid of  929 points,  0 beta functions with:

     atomic species   valence    mass     pseudopotential
        Ni            10.00    58.69340     Ni( 1.00)
        O              6.00    15.99940     O ( 1.00)
        N              5.00    14.00670     N ( 1.00)
        C              4.00    12.01070     C ( 1.00)
        H              1.00     1.00794     H ( 1.00)

     Starting magnetic structure
     atomic species   magnetization
        Ni           0.250
        O            0.000
        N            0.000
        C            0.000
        H            0.000

      2 Sym. Ops. (no inversion) found ( 1 have fractional translation)

   Cartesian axes

     site n.     atom                  positions (alat units)
         1           Ni  tau(   1) = (   0.4642458   1.5100663   1.3793082  )
         2           O   tau(   2) = (   0.2269989   0.7002353   0.6455930  )
         3           O   tau(   3) = (   0.7414252   0.2665388   0.6082936  )
         4           O   tau(   4) = (   0.9187989   0.7054627   0.8171378  )
         5           O   tau(   5) = (   0.0492397   0.2399410   0.7791810  )
         6           N   tau(   6) = (   0.6025592   1.6881995   1.1439600  )
         7           N   tau(   7) = (   0.3350713   1.2940393   1.1750155  )
         8           C   tau(   8) = (   0.5691129   1.9213309   0.8435924  )
         9           H   tau(   9) = (   0.4840353   1.9752074   0.7297223  )
        10           C   tau(  10) = (   0.7737740   1.9988410   0.8769484  )
        11           C   tau(  11) = (   0.8939722   1.9119175   1.0440566  )
        12           H   tau(  12) = (   0.0365226   1.9583835   1.0688681  )
        13           C   tau(  13) = (   0.3878954   1.0396777   0.8940371  )
        14           H   tau(  14) = (   0.4777087   0.9833977   0.7850964  )
        15           C   tau(  15) = (   0.4576709   1.2081171   1.0215454  )
        16           H   tau(  16) = (   0.5969732   1.2643971   0.9988700  )
        17           C   tau(  17) = (   0.4898428   1.7643077   0.9776734  )
        18           H   tau(  18) = (   0.3510215   1.7084283   0.9515473  )
        19           C   tau(  19) = (   0.8025222   1.7578986   1.1727151  )
        20           H   tau(  20) = (   0.8848144   1.6990149   1.2859280  )
        21           C   tau(  21) = (   0.1377615   1.2107208   1.2070569  )
        22           H   tau(  22) = (   0.0501555   1.2710065   1.3156690  )
        23           C   tau(  23) = (   0.0584822   1.0420812   1.0887502  )
        24           H   tau(  24) = (   0.9198816   0.9864020   1.1158622  )
        25           C   tau(  25) = (   0.1873493   0.9553579   0.9277216  )
        26           C   tau(  26) = (   0.8614386   0.1788542   0.7476326  )
        27           C   tau(  27) = (   0.1044740   0.7734994   0.7911760  )
        28           Ni  tau(  28) = (   0.9824452   0.4927804   0.5577339  )
        29           O   tau(  29) = (   0.7087996   1.3026115   1.4671673  )
        30           O   tau(  30) = (   0.2232258   1.7363079   1.4298678  )
        31           O   tau(  31) = (   0.4005995   1.2973840   1.6387120  )
        32           O   tau(  32) = (   0.5310404   1.7629057   1.6007553  )
        33           N   tau(  33) = (   0.1207586   0.3146472   0.3223857  )
        34           N   tau(  34) = (   0.8532706   0.7088075   0.3534412  )
        35           C   tau(  35) = (   0.0873123   0.0815159   0.0220182  )
        36           H   tau(  36) = (  -0.0341640   0.0276393   1.5512965  )
        37           C   tau(  37) = (   0.2919734   0.0040057   0.0553741  )
        38           C   tau(  38) = (   0.4121716   0.0909292   0.2224823  )
        39           H   tau(  39) = (   0.5547220   0.0444632   0.2472939  )
        40           C   tau(  40) = (   0.9060948   0.9631690   0.0724628  )
        41           H   tau(  41) = (   0.9595093   1.0194490   1.6066706  )
        42           C   tau(  42) = (   0.9758703   0.7947296   0.1999712  )
        43           H   tau(  43) = (   0.1151726   0.7384496   0.1772957  )
        44           C   tau(  44) = (   0.0080421   0.2385390   0.1560991  )
        45           H   tau(  45) = (   0.8692209   0.2944185   0.1299730  )
        46           C   tau(  46) = (   0.3207216   0.2449482   0.3511408  )
        47           H   tau(  47) = (   0.4030137   0.3038318   0.4643538  )
        48           C   tau(  48) = (   0.6559609   0.7921259   0.3854826  )
        49           H   tau(  49) = (   0.5683549   0.7318402   0.4940948  )
        50           C   tau(  50) = (   0.5766816   0.9607656   0.2671759  )
        51           H   tau(  51) = (   0.4380810   1.0164447   0.2942879  )
        52           C   tau(  52) = (   0.7055486   1.0474888   0.1061474  )
        53           C   tau(  53) = (   0.3432392   1.8239925   1.5692068  )
        54           C   tau(  54) = (   0.5862746   1.2293473   1.6127503  )

     number of k points=     1  Marzari-Vanderbilt smearing, width (Ry)=  0.2000
                       cart. coord. in units 2pi/alat
        k(    1) = (   0.0000000   0.0000000   0.0000000), wk =   1.0000000

     Check: negative core charge=   -0.000145

     Initial potential from superposition of free atoms

     starting charge  199.99835, renormalised to  200.00000
     Starting wfcs are  178 randomized atomic wfcs

     Self-consistent Calculation

     iteration #  1     ecut=   100.00 Ry     beta= 0.70
     Davidson diagonalization with overlap
     ethr =  1.00E-02,  avg # of iterations =  4.0

     total energy              =    -808.50609787 Ry
     Harris-Foulkes estimate   =    -813.53920990 Ry
     estimated scf accuracy    <      13.16903205 Ry

     total magnetization       =     4.00 Bohr mag/cell
     absolute magnetization    =     4.57 Bohr mag/cell

[...]

     Magnetic moment per site:
     atom:    1    charge:    7.5198    magn:    1.2591    constr:    0.0000
     atom:    2    charge:    3.1202    magn:    0.0530    constr:    0.0000
     atom:    3    charge:    3.1192    magn:    0.0537    constr:    0.0000
     atom:    4    charge:    3.1289    magn:    0.0507    constr:    0.0000
     atom:    5    charge:    3.1269    magn:    0.0529    constr:    0.0000
     atom:    6    charge:    2.4102    magn:    0.0143    constr:    0.0000
     atom:    7    charge:    2.4045    magn:    0.0134    constr:    0.0000
     atom:    8    charge:    0.5996    magn:    0.0036    constr:    0.0000
     atom:    9    charge:    0.4556    magn:   -0.0007    constr:    0.0000
     atom:   10    charge:    0.5739    magn:    0.0039    constr:    0.0000
     atom:   11    charge:    0.5986    magn:    0.0038    constr:    0.0000
     atom:   12    charge:    0.4558    magn:   -0.0008    constr:    0.0000
     atom:   13    charge:    0.5997    magn:    0.0036    constr:    0.0000
     atom:   14    charge:    0.4560    magn:   -0.0007    constr:    0.0000
     atom:   15    charge:    0.5922    magn:    0.0032    constr:    0.0000
     atom:   16    charge:    0.4596    magn:   -0.0005    constr:    0.0000
     atom:   17    charge:    0.5928    magn:    0.0033    constr:    0.0000
[...]
        C              4.00    12.01070     C ( 1.00)
        H              1.00     1.00794     H ( 1.00)

     Starting magnetic structure
     atomic species   magnetization
        Ni           0.139
        O            0.022
        N            0.007
        C            0.008
        H           -0.002

      2 Sym. Ops. (no inversion) found ( 1 have fractional translation)

   Cartesian axes

     site n.     atom                  positions (alat units)
         1           Ni  tau(   1) = (   0.5132279   1.3023959   1.4955864  )
         2           O   tau(   2) = (   0.2337414   0.6136006   0.6737308  )
         3           O   tau(   3) = (   0.8227013   0.2359651   0.6608080  )
         4           O   tau(   4) = (   1.0102611   0.6400041   0.8332087  )
         5           O   tau(   5) = (   0.0409196   0.2045176   0.8237691  )
         6           N   tau(   6) = (   0.6386912   1.4859291   1.2784751  )
         7           N   tau(   7) = (   0.3939659   1.1107423   1.2815651  )
         8           C   tau(   8) = (   0.6114514   1.6891668   0.9571239  )
         9           H   tau(   9) = (   0.5128920   1.7518738   0.8286667  )
        10           C   tau(  10) = (   0.8305810   1.7337852   0.9699756  )
        11           C   tau(  11) = (   0.9526693   1.6527554   1.1388102  )
        12           H   tau(  12) = (   0.0370871   1.6865874   1.1513855  )
        13           C   tau(  13) = (   0.4318430   0.8936006   0.9706107  )
        14           H   tau(  14) = (   0.5341312   0.8254545   0.8479081  )
        15           C   tau(  15) = (   0.5183682   1.0281831   1.1259707  )
        16           H   tau(  16) = (   0.6872147   1.0715609   1.1287107  )
        17           C   tau(  17) = (   0.5192954   1.5629781   1.1163805  )
        18           H   tau(  18) = (   0.3498421   1.5222331   1.1176133  )
        19           C   tau(  19) = (   0.8501491   1.5269058   1.2919977  )
        20           H   tau(  20) = (   0.9346259   1.4576725   1.4274160  )
        21           C   tau(  21) = (   0.1823761   1.0686713   1.2908715  )
        22           H   tau(  22) = (   0.0929002   1.1438836   1.4198355  )
        23           C   tau(  23) = (   0.0851523   0.9350841   1.1407441  )
        24           H   tau(  24) = (   1.0003825   0.9012456   1.1555675  )
        25           C   tau(  25) = (   0.2128564   0.8475187   0.9794491  )
        26           C   tau(  26) = (   0.9290931   0.1479216   0.8140509  )
        27           C   tau(  27) = (   0.1211461   0.6998818   0.8238556  )
        28           Ni  tau(  28) = (   1.0730874   0.4264064   0.6034354  )
        29           O   tau(  29) = (   0.7593469   1.1152017   1.5687235  )
        30           O   tau(  30) = (   0.2628418   1.4928372   1.5529590  )
        31           O   tau(  31) = (   0.4504015   1.0887982   1.7253597  )
        32           O   tau(  32) = (   0.5665252   1.5242847   1.7187618  )
        33           N   tau(  33) = (   0.1130857   0.2428732   0.3834824  )
        34           N   tau(  34) = (   0.9538254   0.6180600   0.3894141  )
        35           C   tau(  35) = (   0.0858458   0.0396355   0.0621312  )
        36           H   tau(  36) = (  -0.0469675  -0.0230715   1.7208177  )
        37           C   tau(  37) = (   0.3049755  -0.0049829   0.0749829  )
        38           C   tau(  38) = (   0.4270638   0.0760470   0.2438175  )
        39           H   tau(  39) = (   0.5969466   0.0422149   0.2592346  )
        40           C   tau(  40) = (   0.9917026   0.8352017   0.0784597  )
        41           H   tau(  41) = (   1.0597368   0.9033478   1.7429008  )
        42           C   tau(  42) = (   1.0782277   0.7006192   0.2338197  )
        43           H   tau(  43) = (   0.1616092   0.6572414   0.2337180  )
        44           C   tau(  44) = (  -0.0063101   0.1658243   0.2213878  )
        45           H   tau(  45) = (   0.9097017   0.2065692   0.2254623  )
        46           C   tau(  46) = (   0.3245436   0.2018966   0.3970049  )
        47           H   tau(  47) = (   0.4090204   0.2711298   0.5324233  )
        48           C   tau(  48) = (   0.7422357   0.6601310   0.3987205  )
        49           H   tau(  49) = (   0.6527597   0.5849187   0.5276846  )
        50           C   tau(  50) = (   0.6450118   0.7937183   0.2485931  )
        51           H   tau(  51) = (   0.4747770   0.8275567   0.2605748  )
        52           C   tau(  52) = (   0.7727159   0.8812836   0.0872981  )
        53           C   tau(  53) = (   0.3692336   1.5808807   1.7062019  )
        54           C   tau(  54) = (   0.6467516   1.0289205   1.7188483  )

     number of k points=     1  Marzari-Vanderbilt smearing, width (Ry)=  0.2000
                       cart. coord. in units 2pi/alat
        k(    1) = (   0.0000000   0.0000000   0.0000000), wk =   1.0000000

     Check: negative core charge=   -0.000144

     Initial potential from superposition of free atoms

     starting charge  199.99835, renormalised to  200.00000
     Starting wfcs are  178 randomized atomic wfcs

     Self-consistent Calculation

     iteration #  1     ecut=   100.00 Ry     beta= 0.70
     Davidson diagonalization with overlap
     c_bands:  3 eigenvalues not converged
     ethr =  1.00E-06,  avg # of iterations = 20.0

[...]

     total energy              =    -811.24752307 Ry
     Harris-Foulkes estimate   =    -811.24752306 Ry
     estimated scf accuracy    <       0.00000001 Ry

[...]

     iteration # 21     ecut=   100.00 Ry     beta= 0.70
     Davidson diagonalization with overlap
     ethr =  7.39E-12,  avg # of iterations =  3.0

     Magnetic moment per site:
     atom:    1    charge:    7.3560    magn:    1.0314    constr:    0.0000
     atom:    2    charge:    3.1181    magn:    0.0687    constr:    0.0000
     atom:    3    charge:    3.1156    magn:    0.0692    constr:    0.0000
     atom:    4    charge:    3.1170    magn:    0.0700    constr:    0.0000
     atom:    5    charge:    3.1182    magn:    0.0708    constr:    0.0000
     atom:    6    charge:    2.4114    magn:    0.0191    constr:    0.0000
     atom:    7    charge:    2.4095    magn:    0.0191    constr:    0.0000
     atom:    8    charge:    0.5734    magn:    0.0055    constr:    0.0000
     atom:    9    charge:    0.3687    magn:   -0.0012    constr:    0.0000
     atom:   10    charge:    0.5752    magn:    0.0043    constr:    0.0000
     atom:   11    charge:    0.5737    magn:    0.0054    constr:    0.0000
     atom:   12    charge:    0.3684    magn:   -0.0015    constr:    0.0000
     atom:   13    charge:    0.5735    magn:    0.0055    constr:    0.0000
     atom:   14    charge:    0.3682    magn:   -0.0012    constr:    0.0000
     atom:   15    charge:    0.5675    magn:    0.0048    constr:    0.0000
     atom:   16    charge:    0.3700    magn:   -0.0011    constr:    0.0000
     atom:   17    charge:    0.5676    magn:    0.0048    constr:    0.0000
     atom:   18    charge:    0.3699    magn:   -0.0012    constr:    0.0000
     atom:   19    charge:    0.5675    magn:    0.0047    constr:    0.0000
     atom:   20    charge:    0.3689    magn:   -0.0008    constr:    0.0000
     atom:   21    charge:    0.5677    magn:    0.0047    constr:    0.0000
     atom:   22    charge:    0.3685    magn:   -0.0008    constr:    0.0000
     atom:   23    charge:    0.5738    magn:    0.0054    constr:    0.0000
     atom:   24    charge:    0.3685    magn:   -0.0015    constr:    0.0000
     atom:   25    charge:    0.5758    magn:    0.0043    constr:    0.0000
     atom:   26    charge:    0.5557    magn:   -0.0014    constr:    0.0000
     atom:   27    charge:    0.5559    magn:   -0.0014    constr:    0.0000
     atom:   28    charge:    7.3559    magn:    1.0315    constr:    0.0000
     atom:   29    charge:    3.1181    magn:    0.0687    constr:    0.0000
     atom:   30    charge:    3.1156    magn:    0.0692    constr:    0.0000
     atom:   31    charge:    3.1170    magn:    0.0700    constr:    0.0000
     atom:   32    charge:    3.1182    magn:    0.0708    constr:    0.0000
     atom:   33    charge:    2.4114    magn:    0.0191    constr:    0.0000
     atom:   34    charge:    2.4095    magn:    0.0191    constr:    0.0000
     atom:   35    charge:    0.5734    magn:    0.0055    constr:    0.0000
     atom:   36    charge:    0.3687    magn:   -0.0012    constr:    0.0000
     atom:   37    charge:    0.5752    magn:    0.0043    constr:    0.0000
     atom:   38    charge:    0.5737    magn:    0.0054    constr:    0.0000
     atom:   39    charge:    0.3684    magn:   -0.0015    constr:    0.0000
     atom:   40    charge:    0.5735    magn:    0.0055    constr:    0.0000
     atom:   41    charge:    0.3682    magn:   -0.0012    constr:    0.0000
     atom:   42    charge:    0.5675    magn:    0.0048    constr:    0.0000
     atom:   43    charge:    0.3700    magn:   -0.0011    constr:    0.0000
     atom:   44    charge:    0.5676    magn:    0.0048    constr:    0.0000
     atom:   45    charge:    0.3699    magn:   -0.0012    constr:    0.0000
     atom:   46    charge:    0.5675    magn:    0.0047    constr:    0.0000
     atom:   47    charge:    0.3689    magn:   -0.0008    constr:    0.0000
     atom:   48    charge:    0.5677    magn:    0.0047    constr:    0.0000
     atom:   49    charge:    0.3685    magn:   -0.0008    constr:    0.0000
     atom:   50    charge:    0.5738    magn:    0.0054    constr:    0.0000
     atom:   51    charge:    0.3685    magn:   -0.0015    constr:    0.0000
     atom:   52    charge:    0.5758    magn:    0.0043    constr:    0.0000
     atom:   53    charge:    0.5557    magn:   -0.0014    constr:    0.0000
     atom:   54    charge:    0.5559    magn:   -0.0014    constr:    0.0000

     End of self-consistent calculation

 ------ SPIN UP ------------

[...]

 ------ SPIN DOWN ----------

          k = 0.0000 0.0000 0.0000 ( 46764 PWs)   bands (ev):

   -22.6249 -22.6220 -22.4548 -22.4534 -19.5770 -19.5767 -19.5679 -19.5674
   -19.4377 -19.4169 -19.2701 -19.2620 -15.6200 -15.5201 -15.5169 -15.4901
   -14.3359 -14.3172 -14.2990 -14.2659 -11.9503 -11.7545 -11.7306 -11.7256
   -11.1953 -11.1853 -11.1566 -11.0969  -9.5388  -9.2272  -9.2142  -9.1758
    -8.4244  -7.8811  -7.8518  -7.7367  -7.7219  -7.6690  -7.6427  -7.5373
    -6.8840  -6.7614  -6.7362  -6.7193  -6.6588  -6.5977  -6.5453  -6.5242
    -6.4931  -6.4190  -6.3269  -6.2608  -6.2412  -6.2015  -6.0878  -5.9644
    -5.8971  -5.7282  -5.5659  -5.5561  -5.4888  -5.3392  -5.3290  -5.0138
    -4.7263  -4.3115  -4.2959  -4.2229  -4.1488  -4.1427  -3.8737  -3.7244
    -3.6047  -3.5015  -3.4194  -3.3393  -3.0232  -2.9518  -2.8929  -2.8739
    -2.8322  -2.5195  -2.4431  -2.4234  -2.4010  -2.3648  -2.2312  -2.1710
    -2.1559  -2.0947  -1.9133  -1.8430  -1.8252  -1.5295  -1.5116  -1.4947
    -1.4374  -1.3533   0.5234   0.5294   0.8158   0.8887   1.7680   1.8926
     1.9270   1.9765   3.0265   3.0498   3.2225   3.2664   3.4997   4.2945
     4.3963   4.4169   4.5438   4.6189   5.1558   5.3568   5.5113   5.6416
     5.6761   5.8341

     the spin up/dw Fermi energies are     0.1252   -0.3165 ev

!    total energy              =    -811.24752307 Ry
     Harris-Foulkes estimate   =    -811.24752307 Ry
     estimated scf accuracy    <          5.6E-09 Ry

     The total energy is the sum of the following terms:

     one-electron contribution =   -1270.74026630 Ry
     hartree contribution      =     704.71107872 Ry
     xc contribution           =    -246.74045343 Ry
     ewald contribution        =       0.33933218 Ry
     Dispersion Correction     =      -0.20558236 Ry
     smearing contrib. (-TS)   =       1.38836813 Ry

     total magnetization       =     4.00 Bohr mag/cell
     absolute magnetization    =     4.15 Bohr mag/cell

     convergence has been achieved in  21 iterations

     Forces acting on atoms (cartesian axes, Ry/au):

     atom    1 type  1   force =    -0.00192750    0.01280695   -0.01117299
     atom    2 type  2   force =    -0.00105803   -0.00125732    0.00188353
     atom    3 type  2   force =     0.00196483    0.00203032    0.00203272
     atom    4 type  2   force =     0.00293727   -0.00130303    0.00025018
     atom    5 type  2   force =    -0.00274477    0.00145876    0.00131050
     atom    6 type  3   force =     0.00008340   -0.00362510   -0.00160182
     atom    7 type  3   force =    -0.00026646    0.00450266   -0.00112192
     atom    8 type  4   force =     0.00006934   -0.00087073    0.00058560
     atom    9 type  5   force =     0.00009207    0.00026954    0.00073598
     atom   10 type  4   force =    -0.00012386    0.00012956    0.00083890
     atom   11 type  4   force =    -0.00028863   -0.00058872    0.00049123
     atom   12 type  5   force =    -0.00024279   -0.00040608    0.00093027
     atom   13 type  4   force =    -0.00010807    0.00077929    0.00065273
     atom   14 type  5   force =    -0.00022200    0.00048461    0.00084542
     atom   15 type  4   force =     0.00017774    0.00117160    0.00067717
     atom   16 type  5   force =    -0.00173757   -0.00100572    0.00093576
     atom   17 type  4   force =    -0.00057435   -0.00117020    0.00008815
     atom   18 type  5   force =     0.00113664    0.00076889    0.00006279
     atom   19 type  4   force =     0.00069509    0.00088090    0.00080390
     atom   20 type  5   force =     0.00005452    0.00034462   -0.00063196
     atom   21 type  4   force =    -0.00033431   -0.00072160    0.00060822
     atom   22 type  5   force =     0.00140756   -0.00083669   -0.00022373
     atom   23 type  4   force =     0.00036730    0.00009106    0.00055662
     atom   24 type  5   force =     0.00071625    0.00023470    0.00063607
     atom   25 type  4   force =     0.00012491    0.00017893    0.00010629
     atom   26 type  4   force =     0.00029256    0.00098133    0.00014282
     atom   27 type  4   force =    -0.00049115   -0.00022044   -0.00042245
     atom   28 type  1   force =    -0.00192750   -0.01280695   -0.01117299
     atom   29 type  2   force =    -0.00105803    0.00125732    0.00188353
     atom   30 type  2   force =     0.00196483   -0.00203032    0.00203272
     atom   31 type  2   force =     0.00293727    0.00130303    0.00025018
     atom   32 type  2   force =    -0.00274477   -0.00145876    0.00131050
     atom   33 type  3   force =     0.00008340    0.00362510   -0.00160182
     atom   34 type  3   force =    -0.00026646   -0.00450266   -0.00112192
     atom   35 type  4   force =     0.00006934    0.00087073    0.00058560
     atom   36 type  5   force =     0.00009207   -0.00026954    0.00073598
     atom   37 type  4   force =    -0.00012386   -0.00012956    0.00083890
     atom   38 type  4   force =    -0.00028863    0.00058872    0.00049123
     atom   39 type  5   force =    -0.00024279    0.00040608    0.00093027
     atom   40 type  4   force =    -0.00010807   -0.00077929    0.00065273
     atom   41 type  5   force =    -0.00022200   -0.00048461    0.00084542
     atom   42 type  4   force =     0.00017774   -0.00117160    0.00067717
     atom   43 type  5   force =    -0.00173757    0.00100572    0.00093576
     atom   44 type  4   force =    -0.00057435    0.00117020    0.00008815
     atom   45 type  5   force =     0.00113664   -0.00076889    0.00006279
     atom   46 type  4   force =     0.00069509   -0.00088090    0.00080390
     atom   47 type  5   force =     0.00005452   -0.00034462   -0.00063196
     atom   48 type  4   force =    -0.00033431    0.00072160    0.00060822
     atom   49 type  5   force =     0.00140756    0.00083669   -0.00022373
     atom   50 type  4   force =     0.00036730   -0.00009106    0.00055662
     atom   51 type  5   force =     0.00071625   -0.00023470    0.00063607
     atom   52 type  4   force =     0.00012491   -0.00017893    0.00010629
     atom   53 type  4   force =     0.00029256   -0.00098133    0.00014282
     atom   54 type  4   force =    -0.00049115    0.00022044   -0.00042245

     Total force =     0.028136     Total SCF correction =     0.000131

     Computing stress (Cartesian axis) and pressure

          total   stress  (Ry/bohr**3)                   (kbar)     P=       16.99
   0.00012755   0.00000000   0.00000418           18.76        0.00        0.62
   0.00000000   0.00011224   0.00000000            0.00       16.51        0.00
   0.00000418   0.00000000   0.00010676            0.62        0.00       15.70

     Writing output data file ./NiPyC2_P1_angles_vc-relax.save/

     General routines

     Parallel routines

   This run was terminated on:  15: 1:49   2Jun2020

   JOB DONE.
QE finished Tue Jun 2 15:01:49 PDT 2020