     Program PWSCF v.6.5 starts on  8Jun2020 at 19:26:36

     K-points division:     npool     =       2
     R & G space division:  proc/nbgrp/npool/nimage =       8
     Reading input from QE_input_scripts/pw.NiPyC2_pbesol-angle-vc-relax.in

     Current dimensions of program PWSCF are:
     Max number of different atomic species (ntypx) = 10
     Max number of k-points (npk) =  40000
     Max angular momentum in pseudopotentials (lmaxx) =  3

     Parameters for Dispersion (Grimme-D2) Correction:
       atom      VdW radius       C_6

        C          2.744         60.710
        H          1.892          4.857
        N          2.640         42.670
        Ni         2.952        374.666
        O          2.536         24.284

     gamma-point specific algorithms are used

     Subspace diagonalization in iterative solution of the eigenvalue problem:
     a serial algorithm will be used

     Message from routine setup:
     using ibrav=0 with symmetry is DISCOURAGED, use correct ibrav instead

     bravais-lattice index     =            0
     lattice parameter (alat)  =      11.8161  a.u.
     unit-cell volume          =    5429.3114 (a.u.)^3
     number of atoms/cell      =           54
     number of atomic types    =            5
     number of electrons       =       200.00 (up: 102.00, down:  98.00)
     number of Kohn-Sham states=          122
     kinetic-energy cutoff     =     100.0000  Ry
     charge density cutoff     =     400.0000  Ry
     convergence threshold     =      1.0E-06
     mixing beta               =       0.7000
     number of iterations used =            8  local-TF  mixing
     Exchange-correlation= PBESOL
                           (   1   4  10   8   0   0   0)
     nstep                     =          200

     celldm(1)=  11.816080  celldm(2)=   0.000000  celldm(3)=   0.000000
     celldm(4)=   0.000000  celldm(5)=   0.000000  celldm(6)=   0.000000

     crystal axes: (cart. coord. in units of alat)
               a(1) = (   1.000000   0.000000   0.000000 )
               a(2) = (   0.000000   2.002847   0.000000 )
               a(3) = (  -0.036399   0.000000   1.643149 )

     reciprocal axes: (cart. coord. in units 2 pi/alat)
               b(1) = (  1.000000  0.000000  0.022152 )
               b(2) = (  0.000000  0.499289  0.000000 )
               b(3) = (  0.000000  0.000000  0.608588 )

     PseudoPot. # 1 for C  read from file:
     ./pseudo/C.pbesol-nc.UPF
     MD5 check sum: ce26087537ded160c8d400e183a8bf42
     Pseudo is Norm-conserving, Zval =  4.0
     Generated using "atomic" code by A. Dal Corso v.6.5
     Using radial grid of 1073 points,  1 beta functions with:
                l(1) =   1

     PseudoPot. # 2 for H  read from file:
     ./pseudo/H.pbesol-n-nc.UPF
     MD5 check sum: 7995ef24074557c85b430109caaacc09
     Pseudo is Norm-conserving, Zval =  1.0
     Generated using "atomic" code by A. Dal Corso v.6.5
     Using radial grid of  929 points,  0 beta functions with:

     PseudoPot. # 3 for N  read from file:
     ./pseudo/N.pbesol-nc.UPF
     MD5 check sum: e18cc5e4b8a5600c1a19b30c2cab1ca0
     Pseudo is Norm-conserving, Zval =  5.0
     Generated using "atomic" code by A. Dal Corso v.6.5
     Using radial grid of 1085 points,  1 beta functions with:
                l(1) =   1

     PseudoPot. # 4 for Ni read from file:
     ./pseudo/Ni.pbesol-n-nc.UPF
     MD5 check sum: 623411631e0c2eb7c0b2b9815547d2d9
     Pseudo is Norm-conserving + core correction, Zval = 10.0
     Generated using "atomic" code by A. Dal Corso v.6.5
     Using radial grid of 1195 points,  2 beta functions with:
                l(1) =   1
                l(2) =   2

     PseudoPot. # 5 for O  read from file:
     ./pseudo/O.pbesol-nc.UPF
     MD5 check sum: 73d10e7e91dbfcbe8a7e362101007f84
     Pseudo is Norm-conserving, Zval =  6.0
     Generated using "atomic" code by A. Dal Corso v.6.5
     Using radial grid of 1095 points,  1 beta functions with:
                l(1) =   1

     atomic species   valence    mass     pseudopotential
        C              4.00    12.01070     C ( 1.00)
        H              1.00     1.00794     H ( 1.00)
        N              5.00    14.00670     N ( 1.00)
        Ni            10.00    58.69340     Ni( 1.00)
        O              6.00    15.99940     O ( 1.00)

     Starting magnetic structure
     atomic species   magnetization
        C            0.000
        H            0.000
        N            0.000
        Ni           0.250
        O            0.000

      2 Sym. Ops. (no inversion) found ( 1 have fractional translation)

   Cartesian axes

     site n.     atom                  positions (alat units)
         1           C   tau(   1) = (   0.5691129   1.9213309   0.8435924  )
         2           C   tau(   2) = (   0.7737740   1.9988410   0.8769484  )
         3           C   tau(   3) = (   0.8939722   1.9119175   1.0440566  )
         4           C   tau(   4) = (   0.3878954   1.0396777   0.8940371  )
         5           C   tau(   5) = (   0.4576709   1.2081171   1.0215454  )
         6           C   tau(   6) = (   0.4898428   1.7643077   0.9776734  )
         7           C   tau(   7) = (   0.8025222   1.7578986   1.1727151  )
         8           C   tau(   8) = (   0.1377615   1.2107208   1.2070569  )
         9           C   tau(   9) = (   0.0584822   1.0420812   1.0887502  )
        10           C   tau(  10) = (   0.1873493   0.9553579   0.9277216  )
        11           C   tau(  11) = (   0.8614386   0.1788542   0.7476326  )
        12           C   tau(  12) = (   0.1044740   0.7734994   0.7911760  )
        13           C   tau(  13) = (   0.0873123   0.0815159   0.0220182  )
        14           C   tau(  14) = (   0.2919734   0.0040057   0.0553741  )
        15           C   tau(  15) = (   0.4121716   0.0909292   0.2224823  )
        16           C   tau(  16) = (   0.9060948   0.9631690   0.0724628  )
        17           C   tau(  17) = (   0.9758703   0.7947296   0.1999712  )
        18           C   tau(  18) = (   0.0080421   0.2385390   0.1560991  )
        19           C   tau(  19) = (   0.3207216   0.2449482   0.3511408  )
        20           C   tau(  20) = (   0.6559609   0.7921259   0.3854826  )
        21           C   tau(  21) = (   0.5766816   0.9607656   0.2671759  )
        22           C   tau(  22) = (   0.7055486   1.0474888   0.1061474  )
        23           C   tau(  23) = (   0.3432392   1.8239925   1.5692068  )
        24           C   tau(  24) = (   0.5862746   1.2293473   1.6127503  )
        25           H   tau(  25) = (   0.4840353   1.9752074   0.7297223  )
        26           H   tau(  26) = (   0.0365226   1.9583835   1.0688681  )
        27           H   tau(  27) = (   0.4777087   0.9833977   0.7850964  )
        28           H   tau(  28) = (   0.5969732   1.2643971   0.9988700  )
        29           H   tau(  29) = (   0.3510215   1.7084283   0.9515473  )
        30           H   tau(  30) = (   0.8848144   1.6990149   1.2859280  )
        31           H   tau(  31) = (   0.0501555   1.2710065   1.3156690  )
        32           H   tau(  32) = (   0.9198816   0.9864020   1.1158622  )
        33           H   tau(  33) = (  -0.0341640   0.0276393   1.5512965  )
        34           H   tau(  34) = (   0.5547220   0.0444632   0.2472939  )
        35           H   tau(  35) = (   0.9595093   1.0194490   1.6066706  )
        36           H   tau(  36) = (   0.1151726   0.7384496   0.1772957  )
        37           H   tau(  37) = (   0.8692209   0.2944185   0.1299730  )
        38           H   tau(  38) = (   0.4030137   0.3038318   0.4643538  )
        39           H   tau(  39) = (   0.5683549   0.7318402   0.4940948  )
        40           H   tau(  40) = (   0.4380810   1.0164447   0.2942879  )
        41           N   tau(  41) = (   0.6025592   1.6881995   1.1439600  )
        42           N   tau(  42) = (   0.3350713   1.2940393   1.1750155  )
        43           N   tau(  43) = (   0.1207586   0.3146472   0.3223857  )
        44           N   tau(  44) = (   0.8532706   0.7088075   0.3534412  )
        45           Ni  tau(  45) = (   0.4642458   1.5100663   1.3793082  )
        46           Ni  tau(  46) = (   0.9824452   0.4927804   0.5577339  )
        47           O   tau(  47) = (   0.2269989   0.7002353   0.6455930  )
        48           O   tau(  48) = (   0.7414252   0.2665388   0.6082936  )
        49           O   tau(  49) = (   0.9187989   0.7054627   0.8171378  )
        50           O   tau(  50) = (   0.0492397   0.2399410   0.7791810  )
        51           O   tau(  51) = (   0.7087996   1.3026115   1.4671673  )
        52           O   tau(  52) = (   0.2232258   1.7363079   1.4298678  )
        53           O   tau(  53) = (   0.4005995   1.2973840   1.6387120  )
        54           O   tau(  54) = (   0.5310404   1.7629057   1.6007553  )

     number of k points=     1  Marzari-Vanderbilt smearing, width (Ry)=  0.2000
                       cart. coord. in units 2pi/alat
        k(    1) = (   0.0000000   0.0000000   0.0000000), wk =   1.0000000

     Check: negative core charge=   -0.000145

     Initial potential from superposition of free atoms

     starting charge  199.99835, renormalised to  200.00000
     Starting wfcs are  178 randomized atomic wfcs

     Self-consistent Calculation

     iteration #  1     ecut=   100.00 Ry     beta= 0.70
     Davidson diagonalization with overlap
     ethr =  1.00E-02,  avg # of iterations =  4.0

     total energy              =    -808.50725247 Ry
     Harris-Foulkes estimate   =    -813.53932633 Ry
     estimated scf accuracy    <      13.16674673 Ry

     total magnetization       =     4.00 Bohr mag/cell
     absolute magnetization    =     4.57 Bohr mag/cell

[...]

     Magnetic moment per site:
     atom:    1    charge:    0.5996    magn:    0.0036    constr:    0.0000
     atom:    2    charge:    0.5739    magn:    0.0039    constr:    0.0000
     atom:    3    charge:    0.5986    magn:    0.0038    constr:    0.0000
     atom:    4    charge:    0.5997    magn:    0.0036    constr:    0.0000
     atom:    5    charge:    0.5922    magn:    0.0032    constr:    0.0000
     atom:    6    charge:    0.5928    magn:    0.0033    constr:    0.0000
     atom:    7    charge:    0.5943    magn:    0.0032    constr:    0.0000
     atom:    8    charge:    0.5913    magn:    0.0033    constr:    0.0000
     atom:    9    charge:    0.5983    magn:    0.0036    constr:    0.0000
     atom:   10    charge:    0.5741    magn:    0.0038    constr:    0.0000
     atom:   11    charge:    0.5593    magn:   -0.0013    constr:    0.0000
     atom:   12    charge:    0.5593    magn:   -0.0012    constr:    0.0000
     atom:   13    charge:    0.5996    magn:    0.0036    constr:    0.0000
     atom:   14    charge:    0.5739    magn:    0.0039    constr:    0.0000
     atom:   15    charge:    0.5986    magn:    0.0038    constr:    0.0000
     atom:   16    charge:    0.5997    magn:    0.0036    constr:    0.0000
     atom:   17    charge:    0.5922    magn:    0.0032    constr:    0.0000
[...]
        O              6.00    15.99940     O ( 1.00)

     Starting magnetic structure
     atomic species   magnetization
        C            0.007
        H           -0.002
        N            0.007
        Ni           0.139
        O            0.022

      2 Sym. Ops. (no inversion) found ( 1 have fractional translation)

   Cartesian axes

     site n.     atom                  positions (alat units)
         1           C   tau(   1) = (   0.6115612   1.6880859   0.9571290  )
         2           C   tau(   2) = (   0.8305468   1.7332654   0.9701934  )
         3           C   tau(   3) = (   0.9525239   1.6526042   1.1392767  )
         4           C   tau(   4) = (   0.4316427   0.8935469   0.9711300  )
         5           C   tau(   5) = (   0.5181619   1.0282920   1.1264013  )
         6           C   tau(   6) = (   0.5195134   1.5619006   1.1164423  )
         7           C   tau(   7) = (   0.8501070   1.5267805   1.2925327  )
         8           C   tau(   8) = (   0.1822730   1.0679841   1.2919186  )
         9           C   tau(   9) = (   0.0850981   0.9342939   1.1418001  )
        10           C   tau(  10) = (   0.2127225   0.8469969   0.9802824  )
        11           C   tau(  11) = (   0.9289340   0.1476786   0.8142017  )
        12           C   tau(  12) = (   0.1209594   0.6995980   0.8244645  )
        13           C   tau(  13) = (   0.0860541   0.0404314   0.0617209  )
        14           C   tau(  14) = (   0.3050398  -0.0047481   0.0747852  )
        15           C   tau(  15) = (   0.4270169   0.0759131   0.2438685  )
        16           C   tau(  16) = (   0.9912028   0.8349703   0.0786750  )
        17           C   tau(  17) = (   1.0777220   0.7002253   0.2339463  )
        18           C   tau(  18) = (  -0.0059937   0.1666166   0.2210341  )
        19           C   tau(  19) = (   0.3245999   0.2017367   0.3971245  )
        20           C   tau(  20) = (   0.7418332   0.6605332   0.3994636  )
        21           C   tau(  21) = (   0.6446583   0.7942233   0.2493451  )
        22           C   tau(  22) = (   0.7722827   0.8815204   0.0878274  )
        23           C   tau(  23) = (   0.3693739   1.5808387   1.7066567  )
        24           C   tau(  24) = (   0.6464664   1.0289192   1.7198726  )
        25           H   tau(  25) = (   0.5129061   1.7502181   0.8284811  )
        26           H   tau(  26) = (   0.0372526   1.6866074   1.1520597  )
        27           H   tau(  27) = (   0.5340798   0.8257150   0.8483597  )
        28           H   tau(  28) = (   0.6869958   1.0719157   1.1290538  )
        29           H   tau(  29) = (   0.3501397   1.5209695   1.1176564  )
        30           H   tau(  30) = (   0.9346825   1.4577792   1.4279967  )
        31           H   tau(  31) = (   0.0927108   1.1429867   1.4210128  )
        32           H   tau(  32) = (   1.0000334   0.8999735   1.1569067  )
        33           H   tau(  33) = (  -0.0466541  -0.0217009   1.7209361  )
        34           H   tau(  34) = (   0.5968127   0.0419099   0.2596048  )
        35           H   tau(  35) = (   1.0595868   0.9028023   1.7437679  )
        36           H   tau(  36) = (   0.1614888   0.6566015   0.2336457  )
        37           H   tau(  37) = (   0.9096999   0.2075477   0.2252014  )
        38           H   tau(  38) = (   0.4091755   0.2707380   0.5325886  )
        39           H   tau(  39) = (   0.6522710   0.5855305   0.5285578  )
        40           H   tau(  40) = (   0.4745263   0.8285438   0.2614986  )
        41           N   tau(  41) = (   0.6387832   1.4853391   1.2788527  )
        42           N   tau(  42) = (   0.3937753   1.1105754   1.2821958  )
        43           N   tau(  43) = (   0.1132762   0.2431781   0.3834446  )
        44           N   tau(  44) = (   0.9533355   0.6179418   0.3897408  )
        45           Ni  tau(  45) = (   0.5131883   1.3021128   1.4962043  )
        46           Ni  tau(  46) = (   1.0727485   0.4264045   0.6037493  )
        47           O   tau(  47) = (   0.2336270   0.6137399   0.6741671  )
        48           O   tau(  48) = (   0.8224176   0.2356057   0.6610016  )
        49           O   tau(  49) = (   1.0096694   0.6396696   0.8337029  )
        50           O   tau(  50) = (   0.0411369   0.2043765   0.8237175  )
        51           O   tau(  51) = (   0.7591340   1.1147774   1.5695753  )
        52           O   tau(  52) = (   0.2628575   1.4929115   1.5534566  )
        53           O   tau(  53) = (   0.4501092   1.0888476   1.7261579  )
        54           O   tau(  54) = (   0.5666440   1.5241408   1.7191257  )

     number of k points=     1  Marzari-Vanderbilt smearing, width (Ry)=  0.2000
                       cart. coord. in units 2pi/alat
        k(    1) = (   0.0000000   0.0000000   0.0000000), wk =   1.0000000

     Check: negative core charge=   -0.000144

     Initial potential from superposition of free atoms

     starting charge  199.99835, renormalised to  200.00000
     Starting wfcs are  178 randomized atomic wfcs

     Self-consistent Calculation

     iteration #  1     ecut=   100.00 Ry     beta= 0.70
     Davidson diagonalization with overlap
     c_bands:  3 eigenvalues not converged
     ethr =  1.00E-06,  avg # of iterations = 20.0

[...]

     total energy              =    -811.24762476 Ry
     Harris-Foulkes estimate   =    -811.24762476 Ry
     estimated scf accuracy    <       0.00000002 Ry

[...]

     iteration # 21     ecut=   100.00 Ry     beta= 0.70
     Davidson diagonalization with overlap
     ethr =  7.62E-12,  avg # of iterations =  3.0

     Magnetic moment per site:
     atom:    1    charge:    0.5735    magn:    0.0055    constr:    0.0000
     atom:    2    charge:    0.5753    magn:    0.0043    constr:    0.0000
     atom:    3    charge:    0.5738    magn:    0.0055    constr:    0.0000
     atom:    4    charge:    0.5734    magn:    0.0055    constr:    0.0000
     atom:    5    charge:    0.5674    magn:    0.0048    constr:    0.0000
     atom:    6    charge:    0.5677    magn:    0.0048    constr:    0.0000
     atom:    7    charge:    0.5676    magn:    0.0047    constr:    0.0000
     atom:    8    charge:    0.5676    magn:    0.0047    constr:    0.0000
     atom:    9    charge:    0.5737    magn:    0.0054    constr:    0.0000
     atom:   10    charge:    0.5757    magn:    0.0043    constr:    0.0000
     atom:   11    charge:    0.5557    magn:   -0.0014    constr:    0.0000
     atom:   12    charge:    0.5558    magn:   -0.0014    constr:    0.0000
     atom:   13    charge:    0.5735    magn:    0.0055    constr:    0.0000
     atom:   14    charge:    0.5753    magn:    0.0043    constr:    0.0000
     atom:   15    charge:    0.5738    magn:    0.0055    constr:    0.0000
     atom:   16    charge:    0.5734    magn:    0.0055    constr:    0.0000
     atom:   17    charge:    0.5674    magn:    0.0048    constr:    0.0000
     atom:   18    charge:    0.5677    magn:    0.0048    constr:    0.0000
     atom:   19    charge:    0.5676    magn:    0.0047    constr:    0.0000
     atom:   20    charge:    0.5676    magn:    0.0047    constr:    0.0000
     atom:   21    charge:    0.5737    magn:    0.0054    constr:    0.0000
     atom:   22    charge:    0.5757    magn:    0.0043    constr:    0.0000
     atom:   23    charge:    0.5557    magn:   -0.0014    constr:    0.0000
     atom:   24    charge:    0.5558    magn:   -0.0014    constr:    0.0000
     atom:   25    charge:    0.3687    magn:   -0.0012    constr:    0.0000
     atom:   26    charge:    0.3685    magn:   -0.0015    constr:    0.0000
     atom:   27    charge:    0.3682    magn:   -0.0012    constr:    0.0000
     atom:   28    charge:    0.3699    magn:   -0.0011    constr:    0.0000
     atom:   29    charge:    0.3702    magn:   -0.0012    constr:    0.0000
     atom:   30    charge:    0.3690    magn:   -0.0008    constr:    0.0000
     atom:   31    charge:    0.3683    magn:   -0.0008    constr:    0.0000
     atom:   32    charge:    0.3685    magn:   -0.0015    constr:    0.0000
     atom:   33    charge:    0.3687    magn:   -0.0012    constr:    0.0000
     atom:   34    charge:    0.3685    magn:   -0.0015    constr:    0.0000
     atom:   35    charge:    0.3682    magn:   -0.0012    constr:    0.0000
     atom:   36    charge:    0.3699    magn:   -0.0011    constr:    0.0000
     atom:   37    charge:    0.3702    magn:   -0.0012    constr:    0.0000
     atom:   38    charge:    0.3690    magn:   -0.0008    constr:    0.0000
     atom:   39    charge:    0.3683    magn:   -0.0008    constr:    0.0000
     atom:   40    charge:    0.3685    magn:   -0.0015    constr:    0.0000
     atom:   41    charge:    2.4114    magn:    0.0190    constr:    0.0000
     atom:   42    charge:    2.4092    magn:    0.0191    constr:    0.0000
     atom:   43    charge:    2.4114    magn:    0.0190    constr:    0.0000
     atom:   44    charge:    2.4092    magn:    0.0191    constr:    0.0000
     atom:   45    charge:    7.3565    magn:    1.0316    constr:    0.0000
     atom:   46    charge:    7.3566    magn:    1.0316    constr:    0.0000
     atom:   47    charge:    3.1181    magn:    0.0687    constr:    0.0000
     atom:   48    charge:    3.1157    magn:    0.0692    constr:    0.0000
     atom:   49    charge:    3.1170    magn:    0.0700    constr:    0.0000
     atom:   50    charge:    3.1179    magn:    0.0708    constr:    0.0000
     atom:   51    charge:    3.1181    magn:    0.0687    constr:    0.0000
     atom:   52    charge:    3.1158    magn:    0.0692    constr:    0.0000
     atom:   53    charge:    3.1170    magn:    0.0700    constr:    0.0000
     atom:   54    charge:    3.1179    magn:    0.0708    constr:    0.0000

     End of self-consistent calculation

 ------ SPIN UP ------------

[...]

 ------ SPIN DOWN ----------

          k = 0.0000 0.0000 0.0000 ( 46750 PWs)   bands (ev):

   -22.6242 -22.6214 -22.4540 -22.4525 -19.5766 -19.5763 -19.5673 -19.5669
   -19.4369 -19.4161 -19.2681 -19.2601 -15.6188 -15.5191 -15.5156 -15.4889
   -14.3349 -14.3162 -14.2971 -14.2640 -11.9495 -11.7538 -11.7299 -11.7253
   -11.1940 -11.1830 -11.1556 -11.0942  -9.5372  -9.2264  -9.2142  -9.1746
    -8.4232  -7.8804  -7.8499  -7.7352  -7.7204  -7.6678  -7.6412  -7.5358
    -6.8828  -6.7620  -6.7362  -6.7184  -6.6588  -6.5960  -6.5427  -6.5239
    -6.4921  -6.4178  -6.3265  -6.2605  -6.2413  -6.2009  -6.0872  -5.9649
    -5.8953  -5.7264  -5.5661  -5.5558  -5.4873  -5.3398  -5.3251  -5.0130
    -4.7235  -4.3106  -4.2938  -4.2219  -4.1473  -4.1404  -3.8722  -3.7240
    -3.6038  -3.5007  -3.4188  -3.3378  -3.0239  -2.9504  -2.8928  -2.8730
    -2.8293  -2.5190  -2.4425  -2.4232  -2.4013  -2.3661  -2.2295  -2.1711
    -2.1544  -2.0949  -1.9109  -1.8410  -1.8227  -1.5289  -1.5106  -1.4941
    -1.4368  -1.3522   0.5228   0.5290   0.8172   0.8899   1.7685   1.8936
     1.9278   1.9767   3.0255   3.0494   3.2262   3.2709   3.4995   4.2945
     4.3951   4.4164   4.5447   4.6197   5.1541   5.3575   5.5153   5.6433
     5.6782   5.8348

     the spin up/dw Fermi energies are     0.1258   -0.3157 ev

!    total energy              =    -811.24762476 Ry
     Harris-Foulkes estimate   =    -811.24762476 Ry
     estimated scf accuracy    <          4.4E-09 Ry

     The total energy is the sum of the following terms:

     one-electron contribution =   -1270.45659621 Ry
     hartree contribution      =     704.57529682 Ry
     xc contribution           =    -246.73852121 Ry
     ewald contribution        =       0.18938155 Ry
     Dispersion Correction     =      -0.20560378 Ry
     smearing contrib. (-TS)   =       1.38841807 Ry

     total magnetization       =     4.00 Bohr mag/cell
     absolute magnetization    =     4.15 Bohr mag/cell

     convergence has been achieved in  21 iterations

     Forces acting on atoms (cartesian axes, Ry/au):

     atom    1 type  1   force =    -0.00010507   -0.00103746    0.00053166
     atom    2 type  1   force =    -0.00019887   -0.00010476    0.00085548
     atom    3 type  1   force =     0.00002840   -0.00047456    0.00061338
     atom    4 type  1   force =     0.00004848    0.00087615    0.00083914
     atom    5 type  1   force =    -0.00011362    0.00100855    0.00085314
     atom    6 type  1   force =    -0.00075330   -0.00103415    0.00031900
     atom    7 type  1   force =     0.00076292    0.00054677    0.00079557
     atom    8 type  1   force =    -0.00034235   -0.00053539    0.00026931
     atom    9 type  1   force =     0.00046322   -0.00020183    0.00066627
     atom   10 type  1   force =     0.00037948    0.00059892   -0.00003542
     atom   11 type  1   force =     0.00028727    0.00093295    0.00009396
     atom   12 type  1   force =    -0.00037015    0.00000311   -0.00040803
     atom   13 type  1   force =    -0.00010507    0.00103746    0.00053166
     atom   14 type  1   force =    -0.00019887    0.00010476    0.00085548
     atom   15 type  1   force =     0.00002840    0.00047456    0.00061338
     atom   16 type  1   force =     0.00004848   -0.00087615    0.00083914
     atom   17 type  1   force =    -0.00011362   -0.00100855    0.00085314
     atom   18 type  1   force =    -0.00075330    0.00103415    0.00031900
     atom   19 type  1   force =     0.00076292   -0.00054677    0.00079557
     atom   20 type  1   force =    -0.00034235    0.00053539    0.00026931
     atom   21 type  1   force =     0.00046322    0.00020183    0.00066627
     atom   22 type  1   force =     0.00037948   -0.00059892   -0.00003542
     atom   23 type  1   force =     0.00028727   -0.00093295    0.00009396
     atom   24 type  1   force =    -0.00037015   -0.00000311   -0.00040803
     atom   25 type  2   force =     0.00018111    0.00044530    0.00063148
     atom   26 type  2   force =    -0.00009015   -0.00022999    0.00070432
     atom   27 type  2   force =    -0.00052980    0.00040710    0.00077167
     atom   28 type  2   force =    -0.00219295   -0.00111352    0.00077672
     atom   29 type  2   force =     0.00091259    0.00067738   -0.00011882
     atom   30 type  2   force =     0.00001955    0.00041117   -0.00054362
     atom   31 type  2   force =     0.00177550   -0.00098284   -0.00047674
     atom   32 type  2   force =     0.00073925    0.00041868    0.00070631
     atom   33 type  2   force =     0.00018111   -0.00044530    0.00063148
     atom   34 type  2   force =    -0.00009015    0.00022999    0.00070432
     atom   35 type  2   force =    -0.00052980   -0.00040710    0.00077167
     atom   36 type  2   force =    -0.00219295    0.00111352    0.00077672
     atom   37 type  2   force =     0.00091259   -0.00067738   -0.00011882
     atom   38 type  2   force =     0.00001955   -0.00041117   -0.00054362
     atom   39 type  2   force =     0.00177550    0.00098284   -0.00047674
     atom   40 type  2   force =     0.00073925   -0.00041868    0.00070631
     atom   41 type  3   force =     0.00002152   -0.00366980   -0.00157410
     atom   42 type  3   force =    -0.00043870    0.00420978   -0.00086726
     atom   43 type  3   force =     0.00002152    0.00366980   -0.00157410
     atom   44 type  3   force =    -0.00043870   -0.00420978   -0.00086726
     atom   45 type  4   force =    -0.00185198    0.01282346   -0.01091350
     atom   46 type  4   force =    -0.00185198   -0.01282346   -0.01091350
     atom   47 type  5   force =    -0.00105974   -0.00145974    0.00173298
     atom   48 type  5   force =     0.00209785    0.00223861    0.00189954
     atom   49 type  5   force =     0.00305972   -0.00126525    0.00044233
     atom   50 type  5   force =    -0.00273019    0.00146305    0.00143523
     atom   51 type  5   force =    -0.00105974    0.00145974    0.00173298
     atom   52 type  5   force =     0.00209785   -0.00223861    0.00189954
     atom   53 type  5   force =     0.00305972    0.00126525    0.00044233
     atom   54 type  5   force =    -0.00273019   -0.00146305    0.00143523

     Total force =     0.028003     Total SCF correction =     0.000121

     Computing stress (Cartesian axis) and pressure

          total   stress  (Ry/bohr**3)                   (kbar)     P=       16.92
   0.00012647   0.00000000   0.00000433           18.60        0.00        0.64
   0.00000000   0.00011227   0.00000000            0.00       16.52        0.00
   0.00000433   0.00000000   0.00010639            0.64        0.00       15.65

     Writing output data file ./QE_relaxation_results/PBESOL_angle-vc-relax/NiPyC2_pbesol_angle-vc-relax.save/

     General routines

     Parallel routines

   This run was terminated on:  23:45:11   8Jun2020

   JOB DONE.
QE finished Mon Jun 8 23:45:11 PDT 2020