     Program PWSCF v.6.5 starts on  1Jun2020 at 13: 0:58

     K-points division:     npool     =       2
     R & G space division:  proc/nbgrp/npool/nimage =      16
     Reading input from QE_input_scripts/pw.NiPyC2_relax_meta_functionalized_OH.in
Warning: card &CELL ignored
Warning: card CELL_DYNAMICS = 'BFGS' ignored
Warning: card CELL_DOFREE = 'XYZ' ignored
Warning: card / ignored

     Current dimensions of program PWSCF are:
     Max number of different atomic species (ntypx) = 10
     Max number of k-points (npk) =  40000
     Max angular momentum in pseudopotentials (lmaxx) =  3

     Parameters for Dispersion (Grimme-D2) Correction:
       atom      VdW radius       C_6

        Ni2        2.952        374.666
        Ni1        2.952        374.666
        O          2.536         24.284
        N          2.640         42.670
        C          2.744         60.710
        H          1.892          4.857

     gamma-point specific algorithms are used

     Subspace diagonalization in iterative solution of the eigenvalue problem:
     a serial algorithm will be used

     bravais-lattice index     =            0
     lattice parameter (alat)  =      23.6322  a.u.
     unit-cell volume          =   10858.6228 (a.u.)^3
     number of atoms/cell      =          116
     number of atomic types    =            6
     number of electrons       =       448.00 (up: 228.00, down: 220.00)
     number of Kohn-Sham states=          274
     kinetic-energy cutoff     =     100.0000  Ry
     charge density cutoff     =     400.0000  Ry
     convergence threshold     =      1.0E-06
     mixing beta               =       0.7000
     number of iterations used =            8  local-TF  mixing
     Exchange-correlation= PBESOL
                           (   1   4  10   8   0   0   0)
     nstep                     =          200

     celldm(1)=  23.632159  celldm(2)=   0.000000  celldm(3)=   0.000000
     celldm(4)=   0.000000  celldm(5)=   0.000000  celldm(6)=   0.000000

     crystal axes: (cart. coord. in units of alat)
               a(1) = (   1.000000   0.000000   0.000000 )
               a(2) = (   0.000000   1.001423   0.000000 )
               a(3) = (  -0.018199   0.000000   0.821574 )

     reciprocal axes: (cart. coord. in units 2 pi/alat)
               b(1) = (  1.000000  0.000000  0.022152 )
               b(2) = (  0.000000  0.998579  0.000000 )
               b(3) = (  0.000000  0.000000  1.217175 )

     PseudoPot. # 1 for Ni read from file:
     ../structural_relaxation/pseudo/Ni.pbesol-n-nc.UPF
     MD5 check sum: 623411631e0c2eb7c0b2b9815547d2d9
     Pseudo is Norm-conserving + core correction, Zval = 10.0
     Generated using "atomic" code by A. Dal Corso v.6.5
     Using radial grid of 1195 points,  2 beta functions with:
                l(1) =   1
                l(2) =   2

     PseudoPot. # 2 for Ni read from file:
     ../structural_relaxation/pseudo/Ni.pbesol-n-nc.UPF
     MD5 check sum: 623411631e0c2eb7c0b2b9815547d2d9
     Pseudo is Norm-conserving + core correction, Zval = 10.0
     Generated using "atomic" code by A. Dal Corso v.6.5
     Using radial grid of 1195 points,  2 beta functions with:
                l(1) =   1
                l(2) =   2

     PseudoPot. # 3 for O  read from file:
     ../structural_relaxation/pseudo/O.pbesol-nc.UPF
     MD5 check sum: 73d10e7e91dbfcbe8a7e362101007f84
     Pseudo is Norm-conserving, Zval =  6.0
     Generated using "atomic" code by A. Dal Corso v.6.5
     Using radial grid of 1095 points,  1 beta functions with:
                l(1) =   1

     PseudoPot. # 4 for N  read from file:
     ../structural_relaxation/pseudo/N.pbesol-nc.UPF
     MD5 check sum: e18cc5e4b8a5600c1a19b30c2cab1ca0
     Pseudo is Norm-conserving, Zval =  5.0
     Generated using "atomic" code by A. Dal Corso v.6.5
     Using radial grid of 1085 points,  1 beta functions with:
                l(1) =   1

     PseudoPot. # 5 for C  read from file:
     ../structural_relaxation/pseudo/C.pbesol-nc.UPF
     MD5 check sum: ce26087537ded160c8d400e183a8bf42
     Pseudo is Norm-conserving, Zval =  4.0
     Generated using "atomic" code by A. Dal Corso v.6.5
     Using radial grid of 1073 points,  1 beta functions with:
                l(1) =   1

     PseudoPot. # 6 for H  read from file:
     ../structural_relaxation/pseudo/H.pbesol-n-nc.UPF
     MD5 check sum: 7995ef24074557c85b430109caaacc09
     Pseudo is Norm-conserving, Zval =  1.0
     Generated using "atomic" code by A. Dal Corso v.6.5
     Using radial grid of  929 points,  0 beta functions with:

     atomic species   valence    mass     pseudopotential
        Ni2           10.00    58.69340     Ni( 1.00)
        Ni1           10.00    58.69340     Ni( 1.00)
        O              6.00    15.99940     O ( 1.00)
        N              5.00    14.00670     N ( 1.00)
        C              4.00    12.01070     C ( 1.00)
        H              1.00     1.00794     H ( 1.00)

     Starting magnetic structure
     atomic species   magnetization
        Ni2          0.250
        Ni1          0.250
        O            0.000
        N            0.000
        C            0.000
        H            0.000

     No symmetry found

   Cartesian axes

     site n.     atom                  positions (alat units)
         1           Ni2 tau(   1) = (   0.2317814   0.7525556   0.6871039  )
         2           Ni1 tau(   2) = (   0.4937992   0.2483520   0.2786599  )
         3           O   tau(   3) = (   0.1158100   0.3481839   0.3145586  )
         4           O   tau(   4) = (   0.3551690   0.6519036   0.7240468  )
         5           O   tau(   5) = (   0.3707656   0.1477170   0.3098797  )
         6           O   tau(   6) = (   0.1091506   0.8535652   0.7199135  )
         7           O   tau(   7) = (   0.4642788   0.3566669   0.3968154  )
         8           O   tau(   8) = (   0.2033039   0.6423280   0.8050417  )
         9           O   tau(   9) = (   0.0200847   0.1353504   0.3952413  )
        10           O   tau(  10) = (   0.2588616   0.8639860   0.8046490  )
        11           N   tau(  11) = (   0.2956096   0.8524646   0.5790685  )
        12           N   tau(  12) = (   0.0569790   0.1490689   0.1692870  )
        13           N   tau(  13) = (   0.1736962   0.6512356   0.5798983  )
        14           N   tau(  14) = (   0.4350238   0.3514275   0.1709211  )
        15           C   tau(  15) = (   0.2787122   0.9714307   0.4288486  )
        16           C   tau(  16) = (   0.0379730   0.0311503   0.0183277  )
        17           H   tau(  17) = (   0.2290596   1.0009978   0.3640502  )
        18           H   tau(  18) = (   0.4693669   0.0026958   0.7751545  )
        19           C   tau(  19) = (   0.3806882   0.0117868   0.4489838  )
        20           C   tau(  20) = (   0.1394042   0.9891499   0.0379124  )
        21           C   tau(  21) = (   0.4400787   0.9715829   0.5343281  )
        22           C   tau(  22) = (   0.1997920   0.0283934   0.1231482  )
        23           H   tau(  23) = (   0.2791988   1.0000865   0.1418054  )
        24           C   tau(  24) = (   0.1986011   0.5304580   0.4324635  )
        25           C   tau(  25) = (   0.4580372   0.4720800   0.0229252  )
        26           H   tau(  26) = (   0.2505234   0.5016080   0.3691185  )
        27           C   tau(  27) = (   0.2341003   0.6142040   0.4982314  )
        28           C   tau(  28) = (   0.4948422   0.3892302   0.0892369  )
        29           H   tau(  29) = (   0.3118554   0.6514319   0.4868937  )
        30           H   tau(  30) = (   0.0732386   0.3533532   0.0780726  )
        31           C   tau(  31) = (   0.2384981   0.8904717   0.4955761  )
        32           C   tau(  32) = (  -0.0008282   0.1123917   0.0856467  )
        33           H   tau(  33) = (   0.1594426   0.8563401   0.4835457  )
        34           H   tau(  34) = (   0.4206861   0.1479423   0.0738480  )
        35           C   tau(  35) = (   0.3947360   0.8906489   0.5977380  )
        36           C   tau(  36) = (   0.1557890   0.1097029   0.1871645  )
        37           H   tau(  37) = (   0.4386511   0.8563902   0.6644572  )
        38           H   tau(  38) = (   0.2006191   0.1433067   0.2536997  )
        39           C   tau(  39) = (   0.0756247   0.6098498   0.5975737  )
        40           C   tau(  40) = (   0.3367152   0.3921904   0.1884642  )
        41           H   tau(  41) = (   0.0290492   0.6438591   0.6626884  )
        42           H   tau(  42) = (   0.2907535   0.3580349   0.2539083  )
        43           C   tau(  43) = (   0.0350715   0.5258264   0.5351012  )
        44           C   tau(  44) = (   0.2948780   0.4753867   0.1254988  )
        45           H   tau(  45) = (   0.4564147   0.4939330   0.5533319  )
        46           C   tau(  46) = (   0.0981522   0.4849593   0.4519611  )
        47           C   tau(  47) = (   0.3569104   0.5163900   0.0416029  )
        48           C   tau(  48) = (   0.4248178   0.0994604   0.3833638  )
        49           C   tau(  49) = (   0.1639424   0.9010006   0.7933713  )
        50           C   tau(  50) = (   0.0588120   0.3950355   0.3866953  )
        51           C   tau(  51) = (   0.2984059   0.6050320   0.7961934  )
        52           Ni2 tau(  52) = (   0.7317814   0.7525556   0.6871039  )
        53           Ni1 tau(  53) = (   0.9937992   0.2483520   0.2786599  )
        54           O   tau(  54) = (   0.6158110   0.3481839   0.3145586  )
        55           O   tau(  55) = (   0.8551690   0.6519036   0.7240468  )
        56           O   tau(  56) = (   0.8707656   0.1477170   0.3098797  )
        57           O   tau(  57) = (   0.6091506   0.8535652   0.7199135  )
        58           O   tau(  58) = (   0.9642788   0.3566669   0.3968154  )
        59           O   tau(  59) = (   0.7033039   0.6423280   0.8050417  )
        60           O   tau(  60) = (   0.5200847   0.1353504   0.3952413  )
[...]
       102           H   tau( 102) = (   0.5811489   0.9795162   0.6152145  )
       103           O   tau( 103) = (   0.9589316   0.9977511   0.7576993  )
       104           H   tau( 104) = (   0.8887471   0.0255814   0.7432289  )
       105           O   tau( 105) = (   0.9369769   0.4860669   0.5558073  )
       106           H   tau( 106) = (   0.8927090   0.5136461   0.6129979  )
       107           O   tau( 107) = (   0.1964508   0.5142019   0.1465886  )
       108           H   tau( 108) = (   0.1528660   0.4865636   0.2042729  )
       109           O   tau( 109) = (   0.0393362   0.0062279   0.5564679  )
       110           H   tau( 110) = (   0.0811489   0.9795162   0.6152145  )
       111           O   tau( 111) = (   0.7987240   0.9924746   0.1445921  )
       112           H   tau( 112) = (   0.8412028   0.0184703   0.2032000  )
       113           O   tau( 113) = (   0.7613722   0.4952750   0.3519731  )
       114           H   tau( 114) = (   0.8309421   0.5260397   0.3376670  )
       115           O   tau( 115) = (   0.0024461   0.5076896   0.7638611  )
       116           H   tau( 116) = (   0.0725058   0.4778602   0.7499700  )

[...]
     atom:   52    charge:    7.4136    magn:    1.2063    constr:    0.0000
     atom:   53    charge:    7.4534    magn:    1.2696    constr:    0.0000
     atom:   54    charge:    1.8978    magn:    0.0382    constr:    0.0000
     atom:   55    charge:    1.3290    magn:    0.0223    constr:    0.0000
     atom:   56    charge:    1.6077    magn:    0.0278    constr:    0.0000
     atom:   57    charge:    1.7249    magn:    0.0267    constr:    0.0000
     atom:   58    charge:    1.7684    magn:    0.0321    constr:    0.0000
     atom:   59    charge:    1.8922    magn:    0.0353    constr:    0.0000
     atom:   60    charge:    1.8508    magn:    0.0383    constr:    0.0000
[...]
     atom:  102    charge:    0.5068    magn:    0.0006    constr:    0.0000
     atom:  103    charge:    0.6804    magn:    0.0068    constr:    0.0000
     atom:  104    charge:    0.0392    magn:    0.0004    constr:    0.0000
     atom:  105    charge:    0.9521    magn:    0.0076    constr:    0.0000
     atom:  106    charge:    0.1532    magn:    0.0004    constr:    0.0000
     atom:  107    charge:    1.6825    magn:    0.0096    constr:    0.0000
     atom:  108    charge:    0.3750    magn:    0.0003    constr:    0.0000
     atom:  109    charge:    1.5867    magn:    0.0111    constr:    0.0000
     atom:  110    charge:    0.3211    magn:    0.0004    constr:    0.0000
     atom:  111    charge:    1.6447    magn:    0.0097    constr:    0.0000
     atom:  112    charge:    0.3742    magn:    0.0004    constr:    0.0000
     atom:  113    charge:    0.9490    magn:    0.0093    constr:    0.0000
     atom:  114    charge:    0.0557    magn:    0.0005    constr:    0.0000
     atom:  115    charge:    1.0478    magn:    0.0092    constr:    0.0000
     atom:  116    charge:    0.0623    magn:    0.0006    constr:    0.0000

     End of self-consistent calculation

 ------ SPIN UP ------------

[...]

 ------ SPIN DOWN ----------

          k = 0.0000 0.0000 0.0000 ( 91663 PWs)   bands (ev):

   -22.0606 -22.0026 -21.9776 -21.9139 -21.9068 -21.8725 -21.8336 -21.7869
   -21.7226 -21.6737 -21.6043 -21.5898 -21.5765 -21.5671 -21.5393 -21.5074
   -19.0250 -18.9345 -18.9289 -18.9020 -18.8856 -18.8637 -18.8571 -18.8357
   -18.8035 -18.7857 -18.7705 -18.7602 -18.7424 -18.7215 -18.6783 -18.6521
   -15.0308 -15.0029 -14.9559 -14.9382 -14.9246 -14.9015 -14.8935 -14.8794
   -13.5844 -13.5796 -13.5235 -13.5090 -13.4960 -13.4759 -13.4537 -13.3971
   -11.4449 -11.4180 -11.3383 -11.3206 -11.3176 -11.2801 -11.2492 -11.2263
   -10.8779 -10.8551 -10.8266 -10.7980 -10.7739 -10.7502 -10.7141 -10.6625
    -9.2104  -9.1502  -9.0122  -8.9467  -8.9251  -8.8514  -8.7913  -8.7419
    -8.7368  -8.7087  -8.6921  -8.6495  -8.6389  -8.6099  -8.5589  -8.5176
    -7.7742  -7.4323  -7.3791  -7.3082  -7.2893  -7.2403  -7.1920  -7.1614
    -7.1491  -7.1232  -7.0254  -6.9697  -6.8548  -6.8035  -6.7160  -6.6619
    -6.3821  -6.3510  -6.3242  -6.3026  -6.2797  -6.2298  -6.1975  -6.1859
    -6.1344  -6.1036  -6.0435  -5.9857  -5.9540  -5.8878  -5.8469  -5.8316
    -5.8115  -5.8028  -5.7945  -5.7714  -5.7188  -5.6963  -5.6762  -5.6430
    -5.6169  -5.5467  -5.4732  -5.4055  -5.3627  -5.3511  -5.3056  -5.2650
    -5.2483  -5.2268  -5.2069  -5.1669  -5.1321  -5.0857  -4.9209  -4.7941
    -4.5231  -4.4713  -4.3564  -4.3441  -4.2981  -4.2739  -4.2403  -4.2075
    -4.1550  -4.1407  -4.1177  -4.0736  -4.0444  -4.0370  -4.0253  -3.9990
    -3.9644  -3.9133  -3.9004  -3.8408  -3.7629  -3.7443  -3.6844  -3.6595
    -3.5894  -3.5627  -3.4082  -3.2804  -3.1798  -3.1672  -3.1028  -2.9259
    -2.7313  -2.7053  -2.6205  -2.5598  -2.4501  -2.4217  -2.3950  -2.3432
    -2.2814  -2.2510  -2.2119  -2.1913  -2.1888  -2.1554  -2.1239  -2.0314
    -2.0213  -1.9740  -1.9140  -1.8808  -1.8382  -1.7847  -1.7466  -1.7376
    -1.6980  -1.6962  -1.6221  -1.5788  -1.5640  -1.4557  -1.3670  -1.2740
    -1.0139  -0.8937  -0.8512  -0.8207  -0.7583  -0.7414  -0.7253  -0.7039
    -0.6919  -0.6736  -0.6563  -0.6366  -0.6261  -0.5761  -0.5498  -0.5304
    -0.5070  -0.4529  -0.3846  -0.2091   0.9249   0.9942   1.0839   1.2010
     1.2617   1.3163   1.3614   1.4329   2.4071   2.4367   2.4913   2.5190
     2.5457   2.5944   2.6045   2.6452   3.7339   3.7455   3.9262   3.9455
     3.9970   4.0313   4.0591   4.1113   4.1459   4.7305   4.8208   4.8749
     4.9219   4.9306   4.9610   5.0031   5.0415   5.0801   5.1643   5.2342
     5.4915   5.7417   5.7862   5.8378   5.8740   5.9800   6.2077   6.2248
     6.2495   6.3344   6.4526   6.6085   6.9013   6.9534   7.0383   7.1180
     7.1716   7.1975

     the spin up/dw Fermi energies are     0.8756    0.5084 ev

!    total energy              =   -1878.49661867 Ry
     Harris-Foulkes estimate   =   -1878.49661867 Ry
     estimated scf accuracy    <          4.6E-09 Ry

     The total energy is the sum of the following terms:

     one-electron contribution =   -2733.45851953 Ry
     hartree contribution      =    1531.66622370 Ry
     xc contribution           =    -549.14575031 Ry
     ewald contribution        =    -129.87857853 Ry
     Dispersion Correction     =      -0.50512403 Ry
     smearing contrib. (-TS)   =       2.82513002 Ry

     total magnetization       =     8.00 Bohr mag/cell
     absolute magnetization    =     8.26 Bohr mag/cell

     convergence has been achieved in  12 iterations

     Forces acting on atoms (cartesian axes, Ry/au):

     atom    1 type  1   force =     0.00091494   -0.00046956   -0.00002851
     atom    2 type  2   force =    -0.00066375    0.00010712    0.00008972
     atom    3 type  3   force =     0.00057285    0.00034245   -0.00035761
     atom    4 type  3   force =     0.00022015    0.00010085   -0.00017204
     atom    5 type  3   force =     0.00023898    0.00055194    0.00005822
     atom    6 type  3   force =    -0.00032489    0.00039386    0.00059064
     atom    7 type  3   force =     0.00028450   -0.00010797    0.00002318
     atom    8 type  3   force =     0.00020628   -0.00044347   -0.00015914
     atom    9 type  3   force =     0.00029413   -0.00033518   -0.00009667
     atom   10 type  3   force =    -0.00006277    0.00046231    0.00018724
     atom   11 type  4   force =     0.00008390    0.00031210    0.00032869
     atom   12 type  4   force =    -0.00007073    0.00020070    0.00056039
     atom   13 type  4   force =    -0.00021401   -0.00043703    0.00021001
     atom   14 type  4   force =     0.00003954    0.00014740    0.00056721
     atom   15 type  5   force =     0.00007148    0.00023340    0.00017330
     atom   16 type  5   force =     0.00023551   -0.00040590   -0.00047974
     atom   17 type  6   force =     0.00017298   -0.00009063    0.00048351
     atom   18 type  6   force =     0.00018879    0.00070730   -0.00062073
     atom   19 type  5   force =    -0.00023775    0.00053676   -0.00016963
     atom   20 type  5   force =    -0.00083242    0.00056788   -0.00010430
     atom   21 type  5   force =    -0.00018379   -0.00017319    0.00053737
     atom   22 type  5   force =    -0.00025957   -0.00008820    0.00029871
     atom   23 type  6   force =    -0.00026529    0.00029325   -0.00020882
     atom   24 type  5   force =    -0.00016716    0.00000506    0.00030914
     atom   25 type  5   force =    -0.00024688   -0.00013982    0.00014191
     atom   26 type  6   force =    -0.00016634    0.00008489   -0.00025164
     atom   27 type  5   force =     0.00001520    0.00025476   -0.00083248
     atom   28 type  5   force =     0.00015864   -0.00015795   -0.00004800
     atom   29 type  6   force =    -0.00019750   -0.00000603   -0.00042157
     atom   30 type  6   force =     0.00013039   -0.00039018    0.00004465
     atom   31 type  5   force =    -0.00022183   -0.00019589    0.00014970
     atom   32 type  5   force =    -0.00005858    0.00011288   -0.00064042
     atom   33 type  6   force =    -0.00020156    0.00003619   -0.00003730
     atom   34 type  6   force =     0.00010774    0.00084532    0.00016498
     atom   35 type  5   force =     0.00028835   -0.00025372   -0.00031937
     atom   36 type  5   force =    -0.00000476   -0.00009424   -0.00046210
     atom   37 type  6   force =     0.00070212    0.00020070    0.00061418
     atom   38 type  6   force =    -0.00012633    0.00007909   -0.00035789
     atom   39 type  5   force =    -0.00025222   -0.00057167    0.00011344
     atom   40 type  5   force =    -0.00036396   -0.00005995    0.00052045
     atom   41 type  6   force =     0.00022177   -0.00041745   -0.00030988
     atom   42 type  6   force =    -0.00058144    0.00013012    0.00046556
     atom   43 type  5   force =    -0.00021206   -0.00024103   -0.00055127
     atom   44 type  5   force =     0.00012694    0.00013420    0.00041289
     atom   45 type  6   force =     0.00040980    0.00040244    0.00017194
     atom   46 type  5   force =     0.00005498   -0.00065735   -0.00059497
     atom   47 type  5   force =     0.00082389    0.00004868   -0.00024839
     atom   48 type  5   force =     0.00017704   -0.00000820   -0.00013434
     atom   49 type  5   force =     0.00037626    0.00052922   -0.00025563
     atom   50 type  5   force =     0.00012472   -0.00072550    0.00016261
     atom   51 type  5   force =    -0.00011398    0.00006794   -0.00013343
     atom   52 type  1   force =    -0.00034221   -0.00038011   -0.00025733
     atom   53 type  2   force =    -0.00013835    0.00031159    0.00020192
     atom   54 type  3   force =    -0.00006058    0.00026039   -0.00032113
     atom   55 type  3   force =     0.00098752   -0.00029730   -0.00041613
     atom   56 type  3   force =     0.00028287    0.00047599   -0.00023664
     atom   57 type  3   force =    -0.00009107   -0.00033028   -0.00010556
     atom   58 type  3   force =    -0.00001457    0.00024014    0.00019472
     atom   59 type  3   force =    -0.00048013   -0.00011308    0.00002908
     atom   60 type  3   force =     0.00048469   -0.00021344   -0.00001834
[...]
     atom  102 type  6   force =     0.00000473    0.00008696   -0.00014205
     atom  103 type  3   force =    -0.00063276   -0.00072399   -0.00036018
     atom  104 type  6   force =     0.00020237    0.00019034    0.00052860
     atom  105 type  3   force =     0.00010177   -0.00001875    0.00043841
     atom  106 type  6   force =    -0.00058793    0.00003889    0.00076051
     atom  107 type  3   force =     0.00018690   -0.00031753    0.00025202
     atom  108 type  6   force =    -0.00028540   -0.00010691    0.00007881
     atom  109 type  3   force =    -0.00019012   -0.00034429   -0.00035027
     atom  110 type  6   force =    -0.00053527    0.00003774    0.00021991
     atom  111 type  3   force =    -0.00023627   -0.00010114   -0.00012690
     atom  112 type  6   force =     0.00000550   -0.00047395   -0.00009324
     atom  113 type  3   force =     0.00002895    0.00022653    0.00019954
     atom  114 type  6   force =     0.00005638   -0.00052234    0.00014464
     atom  115 type  3   force =     0.00025387    0.00026552   -0.00003111
     atom  116 type  6   force =    -0.00002788    0.00038565    0.00045526

     Total force =     0.006554     Total SCF correction =     0.000160

     bfgs converged in  76 scf cycles and  75 bfgs steps
     (criteria: energy <  1.0E-04 Ry, force <  1.0E-03 Ry/Bohr)

     End of BFGS Geometry Optimization

     Final energy   =   -1878.4966186736 Ry
Begin final coordinates

ATOMIC_POSITIONS (crystal)
Ni2           0.2506532324        0.7510312923        0.8362368160
Ni1           0.4990224395        0.2467866008        0.3400313265
O             0.1189044800        0.3668047739        0.3631850519
O             0.3702061023        0.6528658051        0.8930490682
O             0.3824084955        0.1442150400        0.3847625087
O             0.1333225759        0.8613266251        0.8614214664
O             0.4648836022        0.3586771078        0.4767496118
O             0.2130019587        0.6342700948        0.9734371932
O             0.0307513126        0.1421765804        0.4775469693
O             0.2779500623        0.8587984684        0.9808992901
N             0.3168190235        0.8454161395        0.7045294868
N             0.0685948819        0.1543211754        0.2013973805
N             0.1908283698        0.6560129791        0.7007703748
N             0.4368199036        0.3450303463        0.2068099052
C             0.3034380849        0.9666239461        0.5233401194
C             0.0369205673        0.0198200216        0.0364452281
H             0.2553368544        0.9970137552        0.4422165942
H             0.4894752447       -0.0072620653        0.9581532584
C             0.4031928294        0.0110446523        0.5528384533
C             0.1468403108        0.9898416408        0.0401630334
C             0.4621374408        0.9668151979        0.6607574781
C             0.2122873136        0.0406601380        0.1326742477
H             0.2950049877        1.0159983148        0.1468036724
C             0.2084752997        0.5288021138        0.5274018457
C             0.4542427743        0.4740559349        0.0350185034
H             0.2610454963        0.4911209351        0.4582331258
C             0.2507894063        0.6084674793        0.6089425159
C             0.4948112030        0.3899134303        0.1111690839
H             0.3332513979        0.6349700419        0.6034387499
H             0.0768287577        0.3637887078        0.1024196675
C             0.2625342394        0.8836000515        0.5986508815
C             0.0037541881        0.1080438232        0.1132220346
H             0.1851903583        0.8478379788        0.5771194238
H             0.4190813170        0.1367751433        0.1003614393
C             0.4133579313        0.8836835288        0.7346480983
C             0.1714357398        0.1205174301        0.2138090287
H             0.4553438158        0.8511728477        0.8197692115
H             0.2203329315        0.1567269397        0.2904342395
C             0.0888105059        0.6279584145        0.7128831210
C             0.3383969753        0.3804229867        0.2282801566
H             0.0422323921        0.6665242862        0.7877805494
H             0.2940259047        0.3441881587        0.3069453693
C             0.0409432049        0.5463041773        0.6350762193
C             0.2911598619        0.4653062333        0.1544167458
H             0.4508717118        0.5068992485        0.6478021729
C             0.1026043610        0.4950273463        0.5381324945
C             0.3515260656        0.5137709066        0.0539665985
C             0.4425083233        0.0998377366        0.4737586870
C             0.1868583158        0.9021976508        0.9597602959
C             0.0621773435        0.4069425072        0.4560664547
C             0.3102744165        0.6020653890        0.9728896471
Ni2           0.7422220431        0.7554865610        0.8351315480
Ni1           0.9997310944        0.2500401568        0.3316256312
O             0.6173337878        0.3475312543        0.3827693121
O             0.8601633675        0.6406672194        0.8533004441
O             0.8835978729        0.1342676644        0.3633173244
O             0.6280429765        0.8662306062        0.8733640930
O             0.9713850513        0.3624481007        0.4698243194
O             0.7197207492        0.6433723681        0.9729859735
O             0.5362510434        0.1400908510        0.4838953304
[...]
H             0.5849431983        0.9534754182        0.7687213864
O             0.9688996929        0.9644618434        0.9650874518
H             0.8945722015       -0.0306336545        0.9960921711
O             0.9403490851        0.5200746417        0.6555929411
H             0.9142008773        0.5624253083        0.7324041320
O             0.1942182176        0.4978251178        0.1822438871
H             0.1666462673        0.4512991131        0.2554286586
O             0.0578885884       -0.0125676796        0.6752549546
H             0.0845131150        0.9415843310        0.7510337773
O             0.8069899990        1.0081104915        0.1805312947
H             0.8361952432        0.0535277270        0.2561146367
O             0.7750661516        0.4743060770        0.4691444775
H             0.8476959201        0.4917525326        0.5029893349
O             0.0262835983        0.5346870544        0.9572843477
H             0.1019305444        0.5325202260        0.9887360953
End final coordinates

     Writing output data file ../structural_relaxation/NiPyC2_relax_meta_functionalized_OH.save/

     General routines

     Parallel routines

   This run was terminated on:  10:45:39   2Jun2020

   JOB DONE.
QE finished Tue Jun 2 10:45:39 PDT 2020