     Program PWSCF v.6.4.1 starts on 29Apr2020 at  8:22:56

     K-points division:     npool     =       2
     R & G space division:  proc/nbgrp/npool/nimage =      64
     Reading input from nipyc_from_cif_no-vol.inp
Warning: card &CELL ignored
Warning: card    CELL_DYNAMICS='BFGS' ignored
Warning: card    CELL_DOFREE='XYZ' ignored
Warning: card / ignored

     Current dimensions of program PWSCF are:
     Max number of different atomic species (ntypx) = 10
     Max number of k-points (npk) =  40000
     Max angular momentum in pseudopotentials (lmaxx) =  3

     Parameters for Dispersion (Grimme-D2) Correction:
       atom      VdW radius       C_6

        Ni1        2.952        374.666
        Ni2        2.952        374.666
        H          1.892          4.857
        O          2.536         24.284
        N          2.640         42.670
        C          2.744         60.710

     gamma-point specific algorithms are used

     Title:
     nipyc_from_cif_no-vol

     bravais-lattice index     =            0
     lattice parameter (alat)  =      11.8161  a.u.
     unit-cell volume          =    5429.3119 (a.u.)^3
     number of atoms/cell      =           54
     number of atomic types    =            6
     number of electrons       =       200.00 (up: 102.00, down:  98.00)
     number of Kohn-Sham states=          122
     kinetic-energy cutoff     =     100.0000  Ry
     charge density cutoff     =     400.0000  Ry
     convergence threshold     =      1.0E-06
     mixing beta               =       0.7000
     number of iterations used =            8  local-TF  mixing
     Exchange-correlation      = PBESOL ( 1  4 10  8 0 0)
     nstep                     =          200

     celldm(1)=  11.816080  celldm(2)=   0.000000  celldm(3)=   0.000000
     celldm(4)=   0.000000  celldm(5)=   0.000000  celldm(6)=   0.000000

     crystal axes: (cart. coord. in units of alat)
               a(1) = (   1.000000   0.000000   0.000000 )
               a(2) = (   0.000000   2.002847   0.000000 )
               a(3) = (  -0.036399   0.000000   1.643149 )

     reciprocal axes: (cart. coord. in units 2 pi/alat)
               b(1) = (  1.000000  0.000000  0.022152 )
               b(2) = (  0.000000  0.499289  0.000000 )
               b(3) = (  0.000000  0.000000  0.608588 )

     PseudoPot. # 1 for Ni read from file:
     pseudo/Ni.pbesol-n-nc.UPF
     MD5 check sum: edf8e57b53144cd06b183e33dc393044
     Pseudo is Norm-conserving + core correction, Zval = 10.0
     Generated using "atomic" code by A. Dal Corso v.6.2 svn rev. 13949:13950
     Using radial grid of 1195 points,  2 beta functions with:
                l(1) =   1
                l(2) =   2

     PseudoPot. # 2 for Ni read from file:
     pseudo/Ni.pbesol-n-nc.UPF
     MD5 check sum: edf8e57b53144cd06b183e33dc393044
     Pseudo is Norm-conserving + core correction, Zval = 10.0
     Generated using "atomic" code by A. Dal Corso v.6.2 svn rev. 13949:13950
     Using radial grid of 1195 points,  2 beta functions with:
                l(1) =   1
                l(2) =   2

     PseudoPot. # 3 for H  read from file:
     pseudo/H.pbesol-n-nc.UPF
     MD5 check sum: 95e7839de2ad228c76493ec3b5404ce3
     Pseudo is Norm-conserving, Zval =  1.0
     Generated using "atomic" code by A. Dal Corso v.6.2 svn rev. 13949:13950
     Using radial grid of  929 points,  0 beta functions with:

     PseudoPot. # 4 for O  read from file:
     pseudo/O.pbesol-nc.UPF
     MD5 check sum: 84b06decddbe1da0041c21d855b8c3e0
     Pseudo is Norm-conserving, Zval =  6.0
     Generated using "atomic" code by A. Dal Corso v.6.2 svn rev. 13949:13950
     Using radial grid of 1095 points,  1 beta functions with:
                l(1) =   1

     PseudoPot. # 5 for N  read from file:
     pseudo/N.pbesol-nc.UPF
     MD5 check sum: cfd375ffefd4cc6291ee4f2a9be5669e
     Pseudo is Norm-conserving, Zval =  5.0
     Generated using "atomic" code by A. Dal Corso v.6.2 svn rev. 13949:13950
     Using radial grid of 1085 points,  1 beta functions with:
                l(1) =   1

     PseudoPot. # 6 for C  read from file:
     pseudo/C.pbesol-nc.UPF
     MD5 check sum: 8bd801d64030d018287f06c43cd365d7
     Pseudo is Norm-conserving, Zval =  4.0
     Generated using "atomic" code by A. Dal Corso v.6.2 svn rev. 13949:13950
     Using radial grid of 1073 points,  1 beta functions with:
                l(1) =   1

     atomic species   valence    mass     pseudopotential
        Ni1           10.00    58.69000     Ni( 1.00)
        Ni2           10.00    58.69000     Ni( 1.00)
        H              1.00     1.00000     H ( 1.00)
        O              6.00    16.00000     O ( 1.00)
        N              5.00    65.38000     N ( 1.00)
        C              4.00    65.38000     C ( 1.00)

     Starting magnetic structure
     atomic species   magnetization
        Ni1          0.250
        Ni2          0.250
        H            0.000
        O            0.000
        N            0.000
        C            0.000

     No symmetry found

   Cartesian axes

     site n.     atom                  positions (alat units)
         1           Ni1 tau(   1) = (   0.4642458   1.5100664   1.3793082  )
         2           Ni2 tau(   2) = (   0.9824452   0.4927804   0.5577339  )
         3           O   tau(   3) = (   0.2269990   0.7002353   0.6455931  )
         4           O   tau(   4) = (   0.7087996   1.3026115   1.4671674  )
         5           O   tau(   5) = (   0.7414252   0.2665388   0.6082936  )
         6           O   tau(   6) = (   0.2232258   1.7363079   1.4298679  )
         7           O   tau(   7) = (   0.9187989   0.7054627   0.8171378  )
         8           O   tau(   8) = (   0.4005996   1.2973841   1.6387121  )
         9           O   tau(   9) = (   0.0492397   0.2399410   0.7791811  )
        10           O   tau(  10) = (   0.5310404   1.7629057   1.6007554  )
        11           N   tau(  11) = (   0.6025592   1.6881995   1.1439601  )
        12           N   tau(  12) = (   0.1207586   0.3146472   0.3223858  )
        13           N   tau(  13) = (   0.3350713   1.2940393   1.1750156  )
        14           N   tau(  14) = (   0.8532706   0.7088075   0.3534413  )
        15           C   tau(  15) = (   0.5691129   1.9213309   0.8435925  )
        16           C   tau(  16) = (   0.0873123   0.0815159   0.0220182  )
        17           H   tau(  17) = (   0.4840353   1.9752075   0.7297223  )
        18           H   tau(  18) = (  -0.0341640   0.0276393   1.5512966  )
        19           C   tau(  19) = (   0.7737740   1.9988411   0.8769484  )
        20           C   tau(  20) = (   0.2919734   0.0040057   0.0553741  )
        21           C   tau(  21) = (   0.8939723   1.9119175   1.0440566  )
        22           C   tau(  22) = (   0.4121716   0.0909292   0.2224823  )
        23           H   tau(  23) = (   0.0365226   1.9583836   1.0688682  )
        24           H   tau(  24) = (   0.5547220   0.0444632   0.2472939  )
        25           C   tau(  25) = (   0.3878955   1.0396778   0.8940372  )
        26           C   tau(  26) = (   0.9060948   0.9631690   0.0724629  )
        27           H   tau(  27) = (   0.4777087   0.9833978   0.7850964  )
        28           H   tau(  28) = (   0.9595093   1.0194490   1.6066707  )
        29           C   tau(  29) = (   0.4576709   1.2081172   1.0215455  )
        30           C   tau(  30) = (   0.9758703   0.7947296   0.1999712  )
        31           H   tau(  31) = (   0.5969732   1.2643972   0.9988700  )
        32           H   tau(  32) = (   0.1151726   0.7384496   0.1772957  )
        33           C   tau(  33) = (   0.4898428   1.7643077   0.9776734  )
        34           C   tau(  34) = (   0.0080421   0.2385391   0.1560991  )
        35           H   tau(  35) = (   0.3510215   1.7084283   0.9515474  )
        36           H   tau(  36) = (   0.8692209   0.2944185   0.1299731  )
        37           C   tau(  37) = (   0.8025222   1.7578986   1.1727152  )
        38           C   tau(  38) = (   0.3207216   0.2449482   0.3511409  )
        39           H   tau(  39) = (   0.8848144   1.6990149   1.2859281  )
        40           H   tau(  40) = (   0.4030137   0.3038319   0.4643538  )
        41           C   tau(  41) = (   0.1377615   1.2107209   1.2070570  )
        42           C   tau(  42) = (   0.6559609   0.7921259   0.3854827  )
        43           H   tau(  43) = (   0.0501556   1.2710066   1.3156691  )
        44           H   tau(  44) = (   0.5683549   0.7318402   0.4940948  )
        45           C   tau(  45) = (   0.0584822   1.0420812   1.0887503  )
        46           C   tau(  46) = (   0.5766816   0.9607656   0.2671760  )
        47           H   tau(  47) = (   0.9198816   0.9864020   1.1158622  )
        48           H   tau(  48) = (   0.4380810   1.0164447   0.2942879  )
        49           C   tau(  49) = (   0.1873493   0.9553579   0.9277217  )
        50           C   tau(  50) = (   0.7055486   1.0474889   0.1061474  )
        51           C   tau(  51) = (   0.8614386   0.1788542   0.7476326  )
        52           C   tau(  52) = (   0.3432392   1.8239926   1.5692069  )
        53           C   tau(  53) = (   0.1044740   0.7734994   0.7911761  )
        54           C   tau(  54) = (   0.5862747   1.2293474   1.6127504  )

     number of k points=     1  Marzari-Vanderbilt smearing, width (Ry)=  0.2000
                       cart. coord. in units 2pi/alat
        k(    1) = (   0.0000000   0.0000000   0.0000000), wk =   1.0000000

     Check: negative core charge=   -0.000145

     Initial potential from superposition of free atoms

     starting charge  199.99832, renormalised to  200.00000

     negative rho (up, down):  0.000E+00 5.260E-04
     Starting wfcs are  178 randomized atomic wfcs

     Self-consistent Calculation

     iteration #  1     ecut=   100.00 Ry     beta= 0.70
     Davidson diagonalization with overlap
     ethr =  1.00E-02,  avg # of iterations =  4.0

     negative rho (up, down):  0.000E+00 5.933E-05

     total energy              =    -808.50799848 Ry
     Harris-Foulkes estimate   =    -813.54069941 Ry
     estimated scf accuracy    <      13.16916700 Ry

     total magnetization       =     4.00 Bohr mag/cell
     absolute magnetization    =     4.57 Bohr mag/cell

[...]

     Magnetic moment per site:
     atom:    1    charge:    7.5196    magn:    1.2592    constr:    0.0000
     atom:    2    charge:    7.5199    magn:    1.2595    constr:    0.0000
     atom:    3    charge:    3.1214    magn:    0.0530    constr:    0.0000
     atom:    4    charge:    3.1183    magn:    0.0530    constr:    0.0000
     atom:    5    charge:    3.1196    magn:    0.0537    constr:    0.0000
     atom:    6    charge:    3.1205    magn:    0.0537    constr:    0.0000
     atom:    7    charge:    3.1293    magn:    0.0507    constr:    0.0000
     atom:    8    charge:    3.1285    magn:    0.0507    constr:    0.0000
     atom:    9    charge:    3.1278    magn:    0.0529    constr:    0.0000
     atom:   10    charge:    3.1271    magn:    0.0529    constr:    0.0000
[...]
O        0.442274935   0.641414985   0.979876699
O        0.057678644   0.135158432   0.481077643
O        0.553371656   0.862758359   0.979398754
N        0.616875393   0.851253262   0.704828173
N        0.121458891   0.148856964   0.206052008
N        0.373085059   0.650310312   0.705838424
N        0.877620005   0.350927996   0.208040870
C        0.576425066   0.970049791   0.521983519
C        0.076757603   0.031106308   0.022308115
H        0.474248887   0.999575453   0.443113388
H       -0.026924041   0.002692474   0.943498642
C        0.781269316   1.011770323   0.546492125
C        0.280489084  -0.012256055   0.046146276
C        0.903830097   0.970201584   0.650370830
C        0.405040825   0.028353494   0.149893435
H        0.064124693   0.998804836   0.673519612
H        0.564680819  -0.001334869   0.172602430
C        0.416363082   0.529704383   0.526383527
C        0.917090718   0.471408673   0.027903853
H        0.517400546   0.500894781   0.449282062
H        1.017282007   0.500397400   0.950548014
C        0.490274308   0.613330663   0.606435243
C        0.993638178   0.388677444   0.108617299
H        0.645281910   0.650506221   0.592635121
H        0.149937080   0.352850627   0.095027895
C        0.498952028   0.889205565   0.603202768
C        0.002139077   0.112231897   0.104247473
H        0.340307822   0.855123175   0.588560405
H        0.844644675   0.147731997   0.089885744
C        0.815954227   0.889383079   0.727552472
C        0.319868856   0.109546552   0.227811511
H        0.906740041   0.855172958   0.808760938
H        0.412478570   0.143102749   0.308797104
C        0.177723898   0.608982560   0.727351853
C        0.681780422   0.391633092   0.229393612
H        0.087457657   0.642944264   0.806607884
H        0.592757154   0.357525721   0.309051007
C        0.093849921   0.525079510   0.651311724
C        0.595315654   0.474710720   0.152753497
H        0.937343157   0.493231414   0.673501924
H        0.437904548   0.505200711   0.175263672
C        0.216328387   0.484270342   0.550116218
C        0.715665209   0.515655629   0.050638246
C        0.866619347   0.099319024   0.466620783
C        0.363034997   0.899719961   0.965671916
C        0.134755354   0.394473514   0.470675622
C        0.632085894   0.604172066   0.969107041

     Writing output data file nipyc_from_cif_no-vol.save/
     Message from routine punch:
     wavefunctions written to file
     NEW-OLD atomic charge density approx. for the potential

     Check: negative core charge=   -0.000145

[...]

     Self-consistent Calculation

[...]

     Threshold (ethr) on eigenvalues was too large:
     Diagonalizing with lowered threshold

     Davidson diagonalization with overlap
     ethr =  2.96E-08,  avg # of iterations =  2.0

[...]

     total energy              =    -811.25602646 Ry
     Harris-Foulkes estimate   =    -811.25602646 Ry
     estimated scf accuracy    <       0.00000001 Ry

[...]

     iteration # 10     ecut=   100.00 Ry     beta= 0.70
     Davidson diagonalization with overlap
     ethr =  6.44E-12,  avg # of iterations =  1.5

[...]

     Magnetic moment per site:
     atom:    1    charge:    7.5223    magn:    1.1537    constr:    0.0000
     atom:    2    charge:    7.5243    magn:    1.1519    constr:    0.0000
     atom:    3    charge:    3.0716    magn:    0.0594    constr:    0.0000
     atom:    4    charge:    3.0482    magn:    0.0610    constr:    0.0000
     atom:    5    charge:    2.8636    magn:    0.0561    constr:    0.0000
     atom:    6    charge:    2.8704    magn:    0.0565    constr:    0.0000
     atom:    7    charge:    2.9016    magn:    0.0582    constr:    0.0000
     atom:    8    charge:    2.8215    magn:    0.0583    constr:    0.0000
     atom:    9    charge:    2.8109    magn:    0.0576    constr:    0.0000
     atom:   10    charge:    2.7239    magn:    0.0556    constr:    0.0000
     atom:   11    charge:    2.2920    magn:    0.0154    constr:    0.0000
     atom:   12    charge:    2.2979    magn:    0.0156    constr:    0.0000
     atom:   13    charge:    2.3436    magn:    0.0149    constr:    0.0000
     atom:   14    charge:    2.3497    magn:    0.0153    constr:    0.0000
     atom:   15    charge:    0.5329    magn:    0.0050    constr:    0.0000
     atom:   16    charge:    0.5353    magn:    0.0050    constr:    0.0000
     atom:   17    charge:    0.4039    magn:   -0.0008    constr:    0.0000
     atom:   18    charge:    0.4044    magn:   -0.0008    constr:    0.0000
     atom:   19    charge:    0.5120    magn:    0.0037    constr:    0.0000
     atom:   20    charge:    0.5108    magn:    0.0038    constr:    0.0000
     atom:   21    charge:    0.4914    magn:    0.0053    constr:    0.0000
     atom:   22    charge:    0.4876    magn:    0.0054    constr:    0.0000
     atom:   23    charge:    0.3249    magn:   -0.0006    constr:    0.0000
     atom:   24    charge:    0.3209    magn:   -0.0005    constr:    0.0000
     atom:   25    charge:    0.5293    magn:    0.0044    constr:    0.0000
     atom:   26    charge:    0.5360    magn:    0.0044    constr:    0.0000
     atom:   27    charge:    0.4035    magn:   -0.0005    constr:    0.0000
     atom:   28    charge:    0.4134    magn:   -0.0005    constr:    0.0000
     atom:   29    charge:    0.5279    magn:    0.0037    constr:    0.0000
     atom:   30    charge:    0.5380    magn:    0.0036    constr:    0.0000
     atom:   31    charge:    0.4327    magn:   -0.0005    constr:    0.0000
     atom:   32    charge:    0.4552    magn:   -0.0006    constr:    0.0000
     atom:   33    charge:    0.5366    magn:    0.0042    constr:    0.0000
     atom:   34    charge:    0.5406    magn:    0.0042    constr:    0.0000
     atom:   35    charge:    0.4116    magn:   -0.0006    constr:    0.0000
     atom:   36    charge:    0.4112    magn:   -0.0007    constr:    0.0000
     atom:   37    charge:    0.5088    magn:    0.0045    constr:    0.0000
     atom:   38    charge:    0.5066    magn:    0.0045    constr:    0.0000
     atom:   39    charge:    0.3665    magn:   -0.0001    constr:    0.0000
     atom:   40    charge:    0.3702    magn:   -0.0001    constr:    0.0000
     atom:   41    charge:    0.5584    magn:    0.0038    constr:    0.0000
     atom:   42    charge:    0.5587    magn:    0.0037    constr:    0.0000
     atom:   43    charge:    0.3814    magn:   -0.0005    constr:    0.0000
     atom:   44    charge:    0.3737    magn:   -0.0005    constr:    0.0000
     atom:   45    charge:    0.5528    magn:    0.0044    constr:    0.0000
     atom:   46    charge:    0.5545    magn:    0.0044    constr:    0.0000
     atom:   47    charge:    0.3761    magn:   -0.0010    constr:    0.0000
     atom:   48    charge:    0.3751    magn:   -0.0010    constr:    0.0000
     atom:   49    charge:    0.5445    magn:    0.0033    constr:    0.0000
     atom:   50    charge:    0.5456    magn:    0.0033    constr:    0.0000
     atom:   51    charge:    0.5107    magn:   -0.0014    constr:    0.0000
     atom:   52    charge:    0.5060    magn:   -0.0014    constr:    0.0000
     atom:   53    charge:    0.5372    magn:   -0.0015    constr:    0.0000
     atom:   54    charge:    0.5282    magn:   -0.0016    constr:    0.0000

     End of self-consistent calculation

 ------ SPIN UP ------------

[...]

 ------ SPIN DOWN ----------

          k = 0.0000 0.0000 0.0000 ( 45819 PWs)   bands (ev):

   -22.4813 -22.4703 -22.3514 -22.3438 -19.4198 -19.4014 -19.3958 -19.3844
   -19.2226 -19.2005 -19.1137 -19.1004 -15.4712 -15.3983 -15.3838 -15.3606
   -14.1427 -14.1004 -14.0879 -14.0381 -11.7350 -11.6025 -11.5763 -11.5566
   -11.0171 -10.9900 -10.9720 -10.9015  -9.3600  -9.1287  -9.1158  -9.0476
    -8.2419  -7.7668  -7.6770  -7.6222  -7.4913  -7.4485  -7.4100  -7.3613
    -6.7942  -6.6344  -6.5776  -6.5453  -6.5133  -6.4930  -6.3537  -6.3320
    -6.2877  -6.2739  -6.1625  -6.1519  -6.1376  -6.0735  -6.0477  -5.8468
    -5.5843  -5.5696  -5.5208  -5.4053  -5.2417  -5.2069  -5.1234  -4.9189
    -4.5850  -4.0460  -4.0270  -3.9922  -3.9131  -3.8801  -3.7271  -3.5510
    -3.4128  -3.3094  -3.1434  -3.1186  -2.8576  -2.8089  -2.7324  -2.7238
    -2.6419  -2.4146  -2.3689  -2.3407  -2.3324  -2.2798  -2.0163  -2.0005
    -1.9089  -1.8821  -1.8534  -1.7115  -1.6761  -1.3550  -1.3455  -1.3296
    -1.3222  -1.1985   0.4627   0.4958   0.6806   0.7256   2.0010   2.0339
     2.0762   2.1291   3.0586   3.2075   3.3435   3.5288   3.5661   4.2956
     4.4668   4.5244   4.7006   4.7106   5.0353   5.3968   5.6803   5.7696
     5.9361   6.1234

     the spin up/dw Fermi energies are     0.1651   -0.1987 ev

!    total energy              =    -811.25602646 Ry
     Harris-Foulkes estimate   =    -811.25602646 Ry
     estimated scf accuracy    <          3.2E-09 Ry

     The total energy is the sum of the following terms:

     one-electron contribution =   -1218.66716210 Ry
     hartree contribution      =     679.64251536 Ry
     xc contribution           =    -246.43124352 Ry
     ewald contribution        =     -26.97227952 Ry
     Dispersion Correction     =      -0.20858813 Ry
     smearing contrib. (-TS)   =       1.38073145 Ry

     total magnetization       =     4.00 Bohr mag/cell
     absolute magnetization    =     4.12 Bohr mag/cell

     convergence has been achieved in  10 iterations

     negative rho (up, down):  0.000E+00 3.458E-03

     Forces acting on atoms (cartesian axes, Ry/au):

     atom    1 type  1   force =    -0.00008048   -0.00073637   -0.00021282
     atom    2 type  2   force =    -0.00010476   -0.00089047    0.00007528
     atom    3 type  4   force =     0.00026989   -0.00000868   -0.00016800
     atom    4 type  4   force =    -0.00092930    0.00057608   -0.00006615
     atom    5 type  4   force =     0.00013902    0.00025053   -0.00009365
     atom    6 type  4   force =    -0.00004456    0.00040848   -0.00050106
     atom    7 type  4   force =    -0.00004383   -0.00049356    0.00023367
     atom    8 type  4   force =    -0.00011753    0.00036638    0.00087950
     atom    9 type  4   force =    -0.00000971    0.00008897   -0.00018513
     atom   10 type  4   force =     0.00011778    0.00001643    0.00008441
     atom   11 type  5   force =    -0.00048482    0.00001934    0.00078439
     atom   12 type  5   force =    -0.00061178    0.00029270    0.00020086
     atom   13 type  5   force =    -0.00047272    0.00047328   -0.00037066
     atom   14 type  5   force =    -0.00015879   -0.00023858   -0.00007821
     atom   15 type  6   force =     0.00014722   -0.00037589   -0.00013874
     atom   16 type  6   force =     0.00028732    0.00027997    0.00004313
     atom   17 type  3   force =    -0.00014474    0.00024912    0.00010097
     atom   18 type  3   force =     0.00026676   -0.00032407    0.00013781
     atom   19 type  6   force =    -0.00017410    0.00010617    0.00024725
     atom   20 type  6   force =     0.00041540    0.00004408    0.00053850
     atom   21 type  6   force =     0.00067414   -0.00042362    0.00039915
     atom   22 type  6   force =    -0.00037231    0.00068484    0.00007672
     atom   23 type  3   force =    -0.00003844   -0.00017993    0.00044879
     atom   24 type  3   force =     0.00009592    0.00007096    0.00014583
     atom   25 type  6   force =    -0.00050467    0.00029351    0.00076166
     atom   26 type  6   force =     0.00016692   -0.00029480   -0.00037742
     atom   27 type  3   force =     0.00003057   -0.00022241    0.00003580
     atom   28 type  3   force =     0.00077630    0.00042866   -0.00023953
     atom   29 type  6   force =    -0.00005508   -0.00035677   -0.00037311
     atom   30 type  6   force =     0.00029950   -0.00045912   -0.00012639
     atom   31 type  3   force =    -0.00027868   -0.00016535    0.00038336
     atom   32 type  3   force =     0.00004851   -0.00017888    0.00008878
     atom   33 type  6   force =    -0.00019904   -0.00028157   -0.00010930
     atom   34 type  6   force =     0.00003680    0.00010235   -0.00019769
     atom   35 type  3   force =    -0.00035504    0.00031917   -0.00029639
     atom   36 type  3   force =     0.00004940   -0.00082821   -0.00008600
     atom   37 type  6   force =    -0.00032846   -0.00050130    0.00028966
     atom   38 type  6   force =    -0.00045278    0.00034498    0.00024418
     atom   39 type  3   force =     0.00037876   -0.00032744    0.00003969
     atom   40 type  3   force =    -0.00009138   -0.00001686   -0.00054360
     atom   41 type  6   force =     0.00033697   -0.00046573   -0.00000737
     atom   42 type  6   force =     0.00010702   -0.00000976    0.00025168
     atom   43 type  3   force =     0.00077518    0.00024427   -0.00024360
     atom   44 type  3   force =    -0.00023740    0.00004835   -0.00031108
     atom   45 type  6   force =     0.00092540   -0.00013016    0.00004376
     atom   46 type  6   force =     0.00006815   -0.00000428   -0.00009870
     atom   47 type  3   force =     0.00010171    0.00019440   -0.00026688
     atom   48 type  3   force =    -0.00030310    0.00056970   -0.00055943
     atom   49 type  6   force =    -0.00010061    0.00047515   -0.00042566
     atom   50 type  6   force =     0.00006616   -0.00055422   -0.00031597
     atom   51 type  6   force =     0.00003636    0.00055003   -0.00007018
     atom   52 type  6   force =    -0.00023499    0.00022611    0.00015702
     atom   53 type  6   force =     0.00089491    0.00068425   -0.00054451
     atom   54 type  6   force =    -0.00058297    0.00005980    0.00031537

     Total force =     0.004607     Total SCF correction =     0.000137

     bfgs converged in  47 scf cycles and  45 bfgs steps
     (criteria: energy <  1.0E-04 Ry, force <  1.0E-03 Ry/Bohr)

     End of BFGS Geometry Optimization

     Final energy   =    -811.2560264616 Ry
Begin final coordinates

ATOMIC_POSITIONS (crystal)
Ni1      0.494004364   0.751485533   0.836326156
Ni2      0.999944518   0.247999303   0.339178451
O        0.245557155   0.347689283   0.382873137
O        0.742416426   0.650976679   0.881292256
O        0.755261494   0.147506974   0.377177628
O        0.250196290   0.852351660   0.876261152
O        0.946138099   0.356160227   0.482993849
O        0.442274935   0.641414985   0.979876699
O        0.057678644   0.135158432   0.481077643
O        0.553371656   0.862758359   0.979398754
N        0.616875393   0.851253262   0.704828173
N        0.121458891   0.148856964   0.206052008
N        0.373085059   0.650310312   0.705838424
N        0.877620005   0.350927996   0.208040870
C        0.576425066   0.970049791   0.521983519
C        0.076757603   0.031106308   0.022308115
H        0.474248887   0.999575453   0.443113388
H       -0.026924041   0.002692474   0.943498642
C        0.781269316   1.011770323   0.546492125
C        0.280489084  -0.012256055   0.046146276
C        0.903830097   0.970201584   0.650370830
C        0.405040825   0.028353494   0.149893435
H        0.064124693   0.998804836   0.673519612
H        0.564680819  -0.001334869   0.172602430
C        0.416363082   0.529704383   0.526383527
C        0.917090718   0.471408673   0.027903853
H        0.517400546   0.500894781   0.449282062
H        1.017282007   0.500397400   0.950548014
C        0.490274308   0.613330663   0.606435243
C        0.993638178   0.388677444   0.108617299
H        0.645281910   0.650506221   0.592635121
H        0.149937080   0.352850627   0.095027895
C        0.498952028   0.889205565   0.603202768
C        0.002139077   0.112231897   0.104247473
H        0.340307822   0.855123175   0.588560405
H        0.844644675   0.147731997   0.089885744
C        0.815954227   0.889383079   0.727552472
C        0.319868856   0.109546552   0.227811511
H        0.906740041   0.855172958   0.808760938
H        0.412478570   0.143102749   0.308797104
C        0.177723898   0.608982560   0.727351853
C        0.681780422   0.391633092   0.229393612
H        0.087457657   0.642944264   0.806607884
H        0.592757154   0.357525721   0.309051007
C        0.093849921   0.525079510   0.651311724
C        0.595315654   0.474710720   0.152753497
H        0.937343157   0.493231414   0.673501924
H        0.437904548   0.505200711   0.175263672
C        0.216328387   0.484270342   0.550116218
C        0.715665209   0.515655629   0.050638246
C        0.866619347   0.099319024   0.466620783
C        0.363034997   0.899719961   0.965671916
C        0.134755354   0.394473514   0.470675622
C        0.632085894   0.604172066   0.969107041
End final coordinates

     Writing output data file nipyc_from_cif_no-vol.save/

     General routines

     Parallel routines

   This run was terminated on:   8:44: 5  29Apr2020

   JOB DONE.