     Program PWSCF v.6.5 starts on  8Jun2020 at 19:52: 1

     K-points division:     npool     =       2
     R & G space division:  proc/nbgrp/npool/nimage =       8
     Reading input from QE_input_scripts/pw.NiPyC2_vdw-df2-relax.in
Warning: card &CELL ignored
Warning: card    CELL_DYNAMICS = 'BFGS' ignored
Warning: card    CELL_DOFREE = 'XYZ' ignored
Warning: card / ignored

     Current dimensions of program PWSCF are:
     Max number of different atomic species (ntypx) = 10
     Max number of k-points (npk) =  40000
     Max angular momentum in pseudopotentials (lmaxx) =  3

     IMPORTANT: XC functional enforced from input :
     Exchange-correlation= VDW-DF2
                           (   1   4  13   0   2   0   0)
     Any further DFT definition will be discarded
     Please, verify this is what you really want

     Parameters for Dispersion (Grimme-D2) Correction:
       atom      VdW radius       C_6

        C          2.744         60.710
        H          1.892          4.857
        N          2.640         42.670
        Ni         2.952        374.666
        O          2.536         24.284

     gamma-point specific algorithms are used

     Subspace diagonalization in iterative solution of the eigenvalue problem:
     a serial algorithm will be used

     Message from routine setup:
     using ibrav=0 with symmetry is DISCOURAGED, use correct ibrav instead

     bravais-lattice index     =            0
     lattice parameter (alat)  =      11.8161  a.u.
     unit-cell volume          =    5429.3114 (a.u.)^3
     number of atoms/cell      =           54
     number of atomic types    =            5
     number of electrons       =       200.00 (up: 102.00, down:  98.00)
     number of Kohn-Sham states=          122
     kinetic-energy cutoff     =     100.0000  Ry
     charge density cutoff     =     400.0000  Ry
     convergence threshold     =      1.0E-06
     mixing beta               =       0.7000
     number of iterations used =            8  local-TF  mixing
     Exchange-correlation= VDW-DF2
                           (   1   4  13   0   2   0   0)
     nstep                     =          200

     celldm(1)=  11.816080  celldm(2)=   0.000000  celldm(3)=   0.000000
     celldm(4)=   0.000000  celldm(5)=   0.000000  celldm(6)=   0.000000

     crystal axes: (cart. coord. in units of alat)
               a(1) = (   1.000000   0.000000   0.000000 )
               a(2) = (   0.000000   2.002847   0.000000 )
               a(3) = (  -0.036399   0.000000   1.643149 )

     reciprocal axes: (cart. coord. in units 2 pi/alat)
               b(1) = (  1.000000  0.000000  0.022152 )
               b(2) = (  0.000000  0.499289  0.000000 )
               b(3) = (  0.000000  0.000000  0.608588 )

     PseudoPot. # 1 for C  read from file:
     ./pseudo/C.pbesol-nc.UPF
     MD5 check sum: ce26087537ded160c8d400e183a8bf42
     Pseudo is Norm-conserving, Zval =  4.0
     Generated using "atomic" code by A. Dal Corso v.6.5
     Using radial grid of 1073 points,  1 beta functions with:
                l(1) =   1

     PseudoPot. # 2 for H  read from file:
     ./pseudo/H.pbesol-n-nc.UPF
     MD5 check sum: 7995ef24074557c85b430109caaacc09
     Pseudo is Norm-conserving, Zval =  1.0
     Generated using "atomic" code by A. Dal Corso v.6.5
     Using radial grid of  929 points,  0 beta functions with:

     PseudoPot. # 3 for N  read from file:
     ./pseudo/N.pbesol-nc.UPF
     MD5 check sum: e18cc5e4b8a5600c1a19b30c2cab1ca0
     Pseudo is Norm-conserving, Zval =  5.0
     Generated using "atomic" code by A. Dal Corso v.6.5
     Using radial grid of 1085 points,  1 beta functions with:
                l(1) =   1

     PseudoPot. # 4 for Ni read from file:
     ./pseudo/Ni.pbesol-n-nc.UPF
     MD5 check sum: 623411631e0c2eb7c0b2b9815547d2d9
     Pseudo is Norm-conserving + core correction, Zval = 10.0
     Generated using "atomic" code by A. Dal Corso v.6.5
     Using radial grid of 1195 points,  2 beta functions with:
                l(1) =   1
                l(2) =   2

     PseudoPot. # 5 for O  read from file:
     ./pseudo/O.pbesol-nc.UPF
     MD5 check sum: 73d10e7e91dbfcbe8a7e362101007f84
     Pseudo is Norm-conserving, Zval =  6.0
     Generated using "atomic" code by A. Dal Corso v.6.5
     Using radial grid of 1095 points,  1 beta functions with:
                l(1) =   1

     atomic species   valence    mass     pseudopotential
        C              4.00    12.01070     C ( 1.00)
        H              1.00     1.00794     H ( 1.00)
        N              5.00    14.00670     N ( 1.00)
        Ni            10.00    58.69340     Ni( 1.00)
        O              6.00    15.99940     O ( 1.00)

     Starting magnetic structure
     atomic species   magnetization
        C            0.000
        H            0.000
        N            0.000
        Ni           0.250
        O            0.000

      2 Sym. Ops. (no inversion) found ( 1 have fractional translation)

   Cartesian axes

     site n.     atom                  positions (alat units)
         1           C   tau(   1) = (   0.5691129   1.9213309   0.8435924  )
         2           C   tau(   2) = (   0.7737740   1.9988410   0.8769484  )
         3           C   tau(   3) = (   0.8939722   1.9119175   1.0440566  )
         4           C   tau(   4) = (   0.3878954   1.0396777   0.8940371  )
         5           C   tau(   5) = (   0.4576709   1.2081171   1.0215454  )
         6           C   tau(   6) = (   0.4898428   1.7643077   0.9776734  )
         7           C   tau(   7) = (   0.8025222   1.7578986   1.1727151  )
         8           C   tau(   8) = (   0.1377615   1.2107208   1.2070569  )
         9           C   tau(   9) = (   0.0584822   1.0420812   1.0887502  )
        10           C   tau(  10) = (   0.1873493   0.9553579   0.9277216  )
        11           C   tau(  11) = (   0.8614386   0.1788542   0.7476326  )
        12           C   tau(  12) = (   0.1044740   0.7734994   0.7911760  )
        13           C   tau(  13) = (   0.0873123   0.0815159   0.0220182  )
        14           C   tau(  14) = (   0.2919734   0.0040057   0.0553741  )
        15           C   tau(  15) = (   0.4121716   0.0909292   0.2224823  )
        16           C   tau(  16) = (   0.9060948   0.9631690   0.0724628  )
        17           C   tau(  17) = (   0.9758703   0.7947296   0.1999712  )
        18           C   tau(  18) = (   0.0080421   0.2385390   0.1560991  )
        19           C   tau(  19) = (   0.3207216   0.2449482   0.3511408  )
        20           C   tau(  20) = (   0.6559609   0.7921259   0.3854826  )
        21           C   tau(  21) = (   0.5766816   0.9607656   0.2671759  )
        22           C   tau(  22) = (   0.7055486   1.0474888   0.1061474  )
        23           C   tau(  23) = (   0.3432392   1.8239925   1.5692068  )
        24           C   tau(  24) = (   0.5862746   1.2293473   1.6127503  )
        25           H   tau(  25) = (   0.4840353   1.9752074   0.7297223  )
        26           H   tau(  26) = (   0.0365226   1.9583835   1.0688681  )
        27           H   tau(  27) = (   0.4777087   0.9833977   0.7850964  )
        28           H   tau(  28) = (   0.5969732   1.2643971   0.9988700  )
        29           H   tau(  29) = (   0.3510215   1.7084283   0.9515473  )
        30           H   tau(  30) = (   0.8848144   1.6990149   1.2859280  )
        31           H   tau(  31) = (   0.0501555   1.2710065   1.3156690  )
        32           H   tau(  32) = (   0.9198816   0.9864020   1.1158622  )
        33           H   tau(  33) = (  -0.0341640   0.0276393   1.5512965  )
        34           H   tau(  34) = (   0.5547220   0.0444632   0.2472939  )
        35           H   tau(  35) = (   0.9595093   1.0194490   1.6066706  )
        36           H   tau(  36) = (   0.1151726   0.7384496   0.1772957  )
        37           H   tau(  37) = (   0.8692209   0.2944185   0.1299730  )
        38           H   tau(  38) = (   0.4030137   0.3038318   0.4643538  )
        39           H   tau(  39) = (   0.5683549   0.7318402   0.4940948  )
        40           H   tau(  40) = (   0.4380810   1.0164447   0.2942879  )
        41           N   tau(  41) = (   0.6025592   1.6881995   1.1439600  )
        42           N   tau(  42) = (   0.3350713   1.2940393   1.1750155  )
        43           N   tau(  43) = (   0.1207586   0.3146472   0.3223857  )
        44           N   tau(  44) = (   0.8532706   0.7088075   0.3534412  )
        45           Ni  tau(  45) = (   0.4642458   1.5100663   1.3793082  )
        46           Ni  tau(  46) = (   0.9824452   0.4927804   0.5577339  )
        47           O   tau(  47) = (   0.2269989   0.7002353   0.6455930  )
        48           O   tau(  48) = (   0.7414252   0.2665388   0.6082936  )
        49           O   tau(  49) = (   0.9187989   0.7054627   0.8171378  )
        50           O   tau(  50) = (   0.0492397   0.2399410   0.7791810  )
        51           O   tau(  51) = (   0.7087996   1.3026115   1.4671673  )
        52           O   tau(  52) = (   0.2232258   1.7363079   1.4298678  )
        53           O   tau(  53) = (   0.4005995   1.2973840   1.6387120  )
        54           O   tau(  54) = (   0.5310404   1.7629057   1.6007553  )

     number of k points=     1  Marzari-Vanderbilt smearing, width (Ry)=  0.2000
                       cart. coord. in units 2pi/alat
        k(    1) = (   0.0000000   0.0000000   0.0000000), wk =   1.0000000

     Check: negative core charge=   -0.000145

     Initial potential from superposition of free atoms

     starting charge  199.99835, renormalised to  200.00000

     %%%%%%%%%%%%%%%%%%%%%%%%%%%%%%%%%%%%%%%%%%%%%%%%%%%%%%%%%%%%%%%%%%%%%%%%
     %                                                                      %
     % You are using vdW-DF, which was implemented by the Thonhauser group. %
     % Please cite the following two papers that made this development      %
     % possible and the two reviews that describe the various versions:     %
     %                                                                      %
     %   T. Thonhauser et al., PRL 115, 136402 (2015).                      %
     %   T. Thonhauser et al., PRB 76, 125112 (2007).                       %
     %   K. Berland et al., Rep. Prog. Phys. 78, 066501 (2015).             %
     %   D.C. Langreth et al., J. Phys.: Condens. Matter 21, 084203 (2009). %
     %                                                                      %
     %                                                                      %
     % If you are calculating the stress with vdW-DF, please also cite:     %
     %                                                                      %
     %   R. Sabatini et al., J. Phys.: Condens. Matter 24, 424209 (2012).   %
     %                                                                      %
     %%%%%%%%%%%%%%%%%%%%%%%%%%%%%%%%%%%%%%%%%%%%%%%%%%%%%%%%%%%%%%%%%%%%%%%%

     Starting wfcs are  178 randomized atomic wfcs

     Self-consistent Calculation

     iteration #  1     ecut=   100.00 Ry     beta= 0.70
     Davidson diagonalization with overlap
[...]
H             1.0083920594        0.5146151654        0.9672958821
H             0.1401033405        0.3616441240        0.1016614841
H             0.8484670009        0.1525048473        0.0795028521
H             0.4153694710        0.1605391720        0.2958943378
H             0.5810521556        0.3540882868        0.3111625052
H             0.4256521067        0.5068833868        0.1860356777
N             0.6257564092        0.8407998114        0.6942167948
N             0.3651511127        0.6468503874        0.7110572350
N             0.1257564092        0.1592001886        0.1942167948
N             0.8651511127        0.3531496126        0.2110572350
Ni            0.4932376606        0.7529094918        0.8355064513
Ni            0.9932376606        0.2470905082        0.3355064513
O             0.2336424680        0.3473104208        0.3925884649
O             0.7618074509        0.1349657935        0.3702658164
O             0.9317190744        0.3517574129        0.4953624495
O             0.0693719239        0.1228466960        0.4733419838
O             0.7336424680        0.6526895792        0.8925884649
O             0.2618074509        0.8650342065        0.8702658164
O             0.4317190744        0.6482425871        0.9953624495
O             0.5693719239        0.8771533040        0.9733419838

     Writing output data file ./QE_relaxation_results/VDW_relax/NiPyC2_vdw-df2_relax.save/
     NEW-OLD atomic charge density approx. for the potential

     Check: negative core charge=   -0.000145

     Self-consistent Calculation

[...]

     Threshold (ethr) on eigenvalues was too large:
     Diagonalizing with lowered threshold

     Davidson diagonalization with overlap
     ethr =  1.90E-08,  avg # of iterations =  3.0

[...]

     total energy              =    -821.99079029 Ry
     Harris-Foulkes estimate   =    -821.99079042 Ry
     estimated scf accuracy    <       0.00000001 Ry

[...]

     iteration # 10     ecut=   100.00 Ry     beta= 0.70
     Davidson diagonalization with overlap
     ethr =  5.72E-12,  avg # of iterations =  5.0

     Magnetic moment per site:
     atom:    1    charge:    0.5826    magn:    0.0043    constr:    0.0000
     atom:    2    charge:    0.5827    magn:    0.0034    constr:    0.0000
     atom:    3    charge:    0.5824    magn:    0.0042    constr:    0.0000
     atom:    4    charge:    0.5834    magn:    0.0041    constr:    0.0000
     atom:    5    charge:    0.5720    magn:    0.0035    constr:    0.0000
     atom:    6    charge:    0.5755    magn:    0.0036    constr:    0.0000
     atom:    7    charge:    0.5769    magn:    0.0036    constr:    0.0000
     atom:    8    charge:    0.5774    magn:    0.0035    constr:    0.0000
     atom:    9    charge:    0.5823    magn:    0.0041    constr:    0.0000
     atom:   10    charge:    0.5841    magn:    0.0033    constr:    0.0000
     atom:   11    charge:    0.5603    magn:   -0.0021    constr:    0.0000
     atom:   12    charge:    0.5602    magn:   -0.0020    constr:    0.0000
     atom:   13    charge:    0.5826    magn:    0.0043    constr:    0.0000
     atom:   14    charge:    0.5827    magn:    0.0034    constr:    0.0000
     atom:   15    charge:    0.5824    magn:    0.0042    constr:    0.0000
     atom:   16    charge:    0.5834    magn:    0.0041    constr:    0.0000
     atom:   17    charge:    0.5720    magn:    0.0035    constr:    0.0000
     atom:   18    charge:    0.5755    magn:    0.0036    constr:    0.0000
     atom:   19    charge:    0.5769    magn:    0.0036    constr:    0.0000
     atom:   20    charge:    0.5774    magn:    0.0035    constr:    0.0000
     atom:   21    charge:    0.5823    magn:    0.0041    constr:    0.0000
     atom:   22    charge:    0.5841    magn:    0.0033    constr:    0.0000
     atom:   23    charge:    0.5603    magn:   -0.0021    constr:    0.0000
     atom:   24    charge:    0.5602    magn:   -0.0020    constr:    0.0000
     atom:   25    charge:    0.4537    magn:   -0.0010    constr:    0.0000
     atom:   26    charge:    0.4471    magn:   -0.0010    constr:    0.0000
     atom:   27    charge:    0.4620    magn:   -0.0009    constr:    0.0000
     atom:   28    charge:    0.4632    magn:   -0.0008    constr:    0.0000
     atom:   29    charge:    0.4639    magn:   -0.0008    constr:    0.0000
     atom:   30    charge:    0.4549    magn:   -0.0006    constr:    0.0000
     atom:   31    charge:    0.4376    magn:   -0.0006    constr:    0.0000
     atom:   32    charge:    0.4411    magn:   -0.0010    constr:    0.0000
     atom:   33    charge:    0.4537    magn:   -0.0010    constr:    0.0000
     atom:   34    charge:    0.4471    magn:   -0.0010    constr:    0.0000
     atom:   35    charge:    0.4620    magn:   -0.0009    constr:    0.0000
     atom:   36    charge:    0.4632    magn:   -0.0008    constr:    0.0000
     atom:   37    charge:    0.4639    magn:   -0.0008    constr:    0.0000
     atom:   38    charge:    0.4549    magn:   -0.0006    constr:    0.0000
     atom:   39    charge:    0.4376    magn:   -0.0006    constr:    0.0000
     atom:   40    charge:    0.4411    magn:   -0.0010    constr:    0.0000
     atom:   41    charge:    2.4474    magn:    0.0135    constr:    0.0000
     atom:   42    charge:    2.4408    magn:    0.0127    constr:    0.0000
     atom:   43    charge:    2.4474    magn:    0.0135    constr:    0.0000
     atom:   44    charge:    2.4408    magn:    0.0127    constr:    0.0000
     atom:   45    charge:    7.5341    magn:    1.2431    constr:    0.0000
     atom:   46    charge:    7.5341    magn:    1.2431    constr:    0.0000
     atom:   47    charge:    3.1327    magn:    0.0550    constr:    0.0000
     atom:   48    charge:    3.1360    magn:    0.0569    constr:    0.0000
     atom:   49    charge:    3.1583    magn:    0.0596    constr:    0.0000
     atom:   50    charge:    3.1543    magn:    0.0614    constr:    0.0000
     atom:   51    charge:    3.1327    magn:    0.0550    constr:    0.0000
     atom:   52    charge:    3.1360    magn:    0.0569    constr:    0.0000
     atom:   53    charge:    3.1583    magn:    0.0596    constr:    0.0000
     atom:   54    charge:    3.1543    magn:    0.0614    constr:    0.0000

     End of self-consistent calculation

 ------ SPIN UP ------------

[...]

 ------ SPIN DOWN ----------

          k = 0.0000 0.0000 0.0000 ( 45819 PWs)   bands (ev):

   -22.3652 -22.3622 -22.2649 -22.2626 -19.5300 -19.5299 -19.5054 -19.5040
   -19.3962 -19.3802 -19.2850 -19.2776 -15.7646 -15.6945 -15.6919 -15.6573
   -14.5638 -14.5176 -14.5037 -14.4584 -12.0307 -11.9630 -11.9254 -11.8974
   -11.4142 -11.3890 -11.3527 -11.2961  -9.7812  -9.5354  -9.5270  -9.4292
    -8.4364  -7.9973  -7.9916  -7.9381  -7.7886  -7.7875  -7.7078  -7.6830
    -7.1236  -6.9845  -6.9814  -6.8581  -6.8344  -6.7721  -6.7376  -6.6283
    -6.6090  -6.5605  -6.4345  -6.4075  -6.3755  -6.2536  -6.2087  -6.1551
    -6.1054  -6.0480  -5.9936  -5.9637  -5.7007  -5.4995  -5.3143  -5.0727
    -4.7157  -4.6887  -4.6752  -4.6174  -4.5810  -4.1347  -3.8978  -3.8503
    -3.8043  -3.4455  -3.3995  -3.2863  -3.1320  -3.0788  -2.9111  -2.8905
    -2.8208  -2.6241  -2.6080  -2.5891  -2.5639  -2.5046  -2.3126  -2.2816
    -2.2273  -2.1591  -2.0924  -1.9493  -1.9236  -1.6696  -1.6607  -1.6072
    -1.5434  -1.4219   0.1048   0.1241   0.2453   0.2933   1.6721   1.7593
     1.7823   1.8117   2.3109   2.7741   2.8515   3.0692   3.1007   3.2833
     3.7427   4.0232   4.1415   4.3788   4.3854   4.6267   4.6466   4.7481
     5.0064   5.2555

     the spin up/dw Fermi energies are    -0.1797   -0.4687 ev

!    total energy              =    -821.99078986 Ry
     Harris-Foulkes estimate   =    -821.99079031 Ry
     estimated scf accuracy    <          3.5E-09 Ry

     The total energy is the sum of the following terms:

     one-electron contribution =   -1196.18184598 Ry
     hartree contribution      =     670.44245215 Ry
     xc contribution           =    -258.39114627 Ry
     ewald contribution        =     -38.94552257 Ry
     Dispersion Correction     =      -0.20817504 Ry
     smearing contrib. (-TS)   =       1.29344784 Ry

     total magnetization       =     4.00 Bohr mag/cell
     absolute magnetization    =     4.16 Bohr mag/cell

     convergence has been achieved in  10 iterations

     Forces acting on atoms (cartesian axes, Ry/au):

     atom    1 type  1   force =     0.00016567    0.00009076   -0.00006411
     atom    2 type  1   force =    -0.00002685   -0.00037740    0.00033302
     atom    3 type  1   force =     0.00064023   -0.00011116    0.00023505
     atom    4 type  1   force =     0.00050344   -0.00013597   -0.00044966
     atom    5 type  1   force =     0.00075409    0.00017130    0.00011393
     atom    6 type  1   force =    -0.00009733    0.00042762   -0.00006629
     atom    7 type  1   force =     0.00000461    0.00025159    0.00012854
     atom    8 type  1   force =    -0.00028726    0.00013252    0.00013310
     atom    9 type  1   force =    -0.00043954    0.00045335   -0.00001530
     atom   10 type  1   force =    -0.00013530    0.00069070   -0.00027132
     atom   11 type  1   force =    -0.00019316    0.00021159    0.00030440
     atom   12 type  1   force =    -0.00016408    0.00095467    0.00044679
     atom   13 type  1   force =     0.00016567   -0.00009076   -0.00006411
     atom   14 type  1   force =    -0.00002685    0.00037740    0.00033302
     atom   15 type  1   force =     0.00064023    0.00011116    0.00023505
     atom   16 type  1   force =     0.00050344    0.00013597   -0.00044966
     atom   17 type  1   force =     0.00075409   -0.00017130    0.00011393
     atom   18 type  1   force =    -0.00009733   -0.00042762   -0.00006629
     atom   19 type  1   force =     0.00000461   -0.00025159    0.00012854
     atom   20 type  1   force =    -0.00028726   -0.00013252    0.00013310
     atom   21 type  1   force =    -0.00043954   -0.00045335   -0.00001530
     atom   22 type  1   force =    -0.00013530   -0.00069070   -0.00027132
     atom   23 type  1   force =    -0.00019316   -0.00021159    0.00030440
     atom   24 type  1   force =    -0.00016408   -0.00095467    0.00044679
     atom   25 type  2   force =     0.00032837    0.00043775   -0.00006418
     atom   26 type  2   force =    -0.00007816    0.00074927   -0.00053893
     atom   27 type  2   force =    -0.00001379    0.00041171   -0.00024139
     atom   28 type  2   force =    -0.00019049    0.00024282   -0.00011886
     atom   29 type  2   force =     0.00026235    0.00033090    0.00007090
     atom   30 type  2   force =     0.00042304    0.00080536    0.00009017
     atom   31 type  2   force =    -0.00045615    0.00011174   -0.00007682
     atom   32 type  2   force =     0.00024578   -0.00008326   -0.00069765
     atom   33 type  2   force =     0.00032837   -0.00043775   -0.00006418
     atom   34 type  2   force =    -0.00007816   -0.00074927   -0.00053893
     atom   35 type  2   force =    -0.00001379   -0.00041171   -0.00024139
     atom   36 type  2   force =    -0.00019049   -0.00024282   -0.00011886
     atom   37 type  2   force =     0.00026235   -0.00033090    0.00007090
     atom   38 type  2   force =     0.00042304   -0.00080536    0.00009017
     atom   39 type  2   force =    -0.00045615   -0.00011174   -0.00007682
     atom   40 type  2   force =     0.00024578    0.00008326   -0.00069765
     atom   41 type  3   force =     0.00025799   -0.00040997   -0.00032897
     atom   42 type  3   force =    -0.00046016    0.00032269   -0.00033287
     atom   43 type  3   force =     0.00025799    0.00040997   -0.00032897
     atom   44 type  3   force =    -0.00046016   -0.00032269   -0.00033287
     atom   45 type  4   force =     0.00062443    0.00006155   -0.00039071
     atom   46 type  4   force =     0.00062443   -0.00006155   -0.00039071
     atom   47 type  5   force =    -0.00010733    0.00041779    0.00030833
     atom   48 type  5   force =    -0.00053082   -0.00087051    0.00038406
     atom   49 type  5   force =    -0.00097783   -0.00017577    0.00036499
     atom   50 type  5   force =    -0.00005176    0.00012418    0.00074380
     atom   51 type  5   force =    -0.00010733   -0.00041779    0.00030833
     atom   52 type  5   force =    -0.00053082    0.00087051    0.00038406
     atom   53 type  5   force =    -0.00097783    0.00017577    0.00036499
     atom   54 type  5   force =    -0.00005176   -0.00012418    0.00074380

     Total force =     0.004961     Total SCF correction =     0.000124

     bfgs converged in  25 scf cycles and  23 bfgs steps
     (criteria: energy <  1.0E-04 Ry, force <  1.0E-03 Ry/Bohr)

     End of BFGS Geometry Optimization

     Final energy   =    -821.9907898643 Ry
Begin final coordinates

ATOMIC_POSITIONS (crystal)
C             0.5874708925        0.9590244943        0.5114951942
C             0.7951237806        0.9978856686        0.5358428057
C             0.9189814879        0.9546061730        0.6384361658
C             0.4081907449        0.5189930396        0.5400960347
C             0.4844079579        0.6043389924        0.6154993467
C             0.5073420716        0.8792541092        0.5927519449
C             0.8286002471        0.8748829392        0.7157577562
C             0.1678301372        0.6082097458        0.7348149690
C             0.0817520033        0.5224793092        0.6631576552
C             0.2040818589        0.4780954759        0.5639180042
C             0.8791796459        0.0863872011        0.4576689601
C             0.1201231837        0.3900111882        0.4833111038
C             0.0874708925        0.0409755057        0.0114951942
C             0.2951237806        0.0021143314        0.0358428057
C             0.4189814879        0.0453938270        0.1384361658
C             0.9081907449        0.4810069604        0.0400960347
C             0.9844079579        0.3956610076        0.1154993467
C             0.0073420716        0.1207458908        0.0927519449
C             0.3286002471        0.1251170608        0.2157577562
C             0.6678301372        0.3917902542        0.2348149690
C             0.5817520033        0.4775206908        0.1631576552
C             0.7040818589        0.5219045241        0.0639180042
C             0.3791796459        0.9136127989        0.9576689601
C             0.6201231837        0.6099888118        0.9833111038
H             0.4869207776        0.9905556209        0.4347197948
H             0.0786729772        0.9811978633        0.6610683299
H             0.5083920594        0.4853848346        0.4672958821
H             0.6401033405        0.6383558760        0.6016614841
H             0.3484670009        0.8474951527        0.5795028521
H             0.9153694710        0.8394608280        0.7958943378
H             0.0810521556        0.6459117132        0.8111625052
H             0.9256521067        0.4931166132        0.6860356777
H            -0.0130792224        0.0094443791        0.9347197948
H             0.5786729772        0.0188021367        0.1610683299
H             1.0083920594        0.5146151654        0.9672958821
H             0.1401033405        0.3616441240        0.1016614841
H             0.8484670009        0.1525048473        0.0795028521
H             0.4153694710        0.1605391720        0.2958943378
H             0.5810521556        0.3540882868        0.3111625052
H             0.4256521067        0.5068833868        0.1860356777
N             0.6257564092        0.8407998114        0.6942167948
N             0.3651511127        0.6468503874        0.7110572350
N             0.1257564092        0.1592001886        0.1942167948
N             0.8651511127        0.3531496126        0.2110572350
Ni            0.4932376606        0.7529094918        0.8355064513
Ni            0.9932376606        0.2470905082        0.3355064513
O             0.2336424680        0.3473104208        0.3925884649
O             0.7618074509        0.1349657935        0.3702658164
O             0.9317190744        0.3517574129        0.4953624495
O             0.0693719239        0.1228466960        0.4733419838
O             0.7336424680        0.6526895792        0.8925884649
O             0.2618074509        0.8650342065        0.8702658164
O             0.4317190744        0.6482425871        0.9953624495
O             0.5693719239        0.8771533040        0.9733419838
End final coordinates

     Writing output data file ./QE_relaxation_results/VDW_relax/NiPyC2_vdw-df2_relax.save/

     General routines

     Parallel routines

   This run was terminated on:  21:54: 2   8Jun2020

   JOB DONE.
QE finished Mon Jun 8 21:54:02 PDT 2020