     Program PWSCF v.6.5 starts on  8Jun2020 at 20:14:16

     K-points division:     npool     =       2
     R & G space division:  proc/nbgrp/npool/nimage =       8
     Reading input from QE_input_scripts/pw.NiPyC2_relax_meta_functionalized_OH_vdw-df2-relax.in
Warning: card &CELL ignored
Warning: card    CELL_DYNAMICS = 'BFGS' ignored
Warning: card    CELL_DOFREE = 'XYZ' ignored
Warning: card / ignored

     Current dimensions of program PWSCF are:
     Max number of different atomic species (ntypx) = 10
     Max number of k-points (npk) =  40000
     Max angular momentum in pseudopotentials (lmaxx) =  3

     IMPORTANT: XC functional enforced from input :
     Exchange-correlation= VDW-DF2
                           (   1   4  13   0   2   0   0)
     Any further DFT definition will be discarded
     Please, verify this is what you really want

     Parameters for Dispersion (Grimme-D2) Correction:
       atom      VdW radius       C_6

        C          2.744         60.710
        H          1.892          4.857
        N          2.640         42.670
        Ni         2.952        374.666
        O          2.536         24.284

     gamma-point specific algorithms are used

     Subspace diagonalization in iterative solution of the eigenvalue problem:
     a serial algorithm will be used

     bravais-lattice index     =            0
     lattice parameter (alat)  =      11.8161  a.u.
     unit-cell volume          =    5429.3114 (a.u.)^3
     number of atoms/cell      =           58
     number of atomic types    =            5
     number of electrons       =       224.00 (up: 114.00, down: 110.00)
     number of Kohn-Sham states=          137
     kinetic-energy cutoff     =     100.0000  Ry
     charge density cutoff     =     400.0000  Ry
     convergence threshold     =      1.0E-06
     mixing beta               =       0.7000
     number of iterations used =            8  local-TF  mixing
     Exchange-correlation= VDW-DF2
                           (   1   4  13   0   2   0   0)
     nstep                     =          200

     celldm(1)=  11.816080  celldm(2)=   0.000000  celldm(3)=   0.000000
     celldm(4)=   0.000000  celldm(5)=   0.000000  celldm(6)=   0.000000

     crystal axes: (cart. coord. in units of alat)
               a(1) = (   1.000000   0.000000   0.000000 )
               a(2) = (   0.000000   2.002847   0.000000 )
               a(3) = (  -0.036399   0.000000   1.643149 )

     reciprocal axes: (cart. coord. in units 2 pi/alat)
               b(1) = (  1.000000  0.000000  0.022152 )
               b(2) = (  0.000000  0.499289  0.000000 )
               b(3) = (  0.000000  0.000000  0.608588 )

     PseudoPot. # 1 for C  read from file:
     ./pseudo/C.pbesol-nc.UPF
     MD5 check sum: ce26087537ded160c8d400e183a8bf42
     Pseudo is Norm-conserving, Zval =  4.0
     Generated using "atomic" code by A. Dal Corso v.6.5
     Using radial grid of 1073 points,  1 beta functions with:
                l(1) =   1

     PseudoPot. # 2 for H  read from file:
     ./pseudo/H.pbesol-n-nc.UPF
     MD5 check sum: 7995ef24074557c85b430109caaacc09
     Pseudo is Norm-conserving, Zval =  1.0
     Generated using "atomic" code by A. Dal Corso v.6.5
     Using radial grid of  929 points,  0 beta functions with:

     PseudoPot. # 3 for N  read from file:
     ./pseudo/N.pbesol-nc.UPF
     MD5 check sum: e18cc5e4b8a5600c1a19b30c2cab1ca0
     Pseudo is Norm-conserving, Zval =  5.0
     Generated using "atomic" code by A. Dal Corso v.6.5
     Using radial grid of 1085 points,  1 beta functions with:
                l(1) =   1

     PseudoPot. # 4 for Ni read from file:
     ./pseudo/Ni.pbesol-n-nc.UPF
     MD5 check sum: 623411631e0c2eb7c0b2b9815547d2d9
     Pseudo is Norm-conserving + core correction, Zval = 10.0
     Generated using "atomic" code by A. Dal Corso v.6.5
     Using radial grid of 1195 points,  2 beta functions with:
                l(1) =   1
                l(2) =   2

     PseudoPot. # 5 for O  read from file:
     ./pseudo/O.pbesol-nc.UPF
     MD5 check sum: 73d10e7e91dbfcbe8a7e362101007f84
     Pseudo is Norm-conserving, Zval =  6.0
     Generated using "atomic" code by A. Dal Corso v.6.5
     Using radial grid of 1095 points,  1 beta functions with:
                l(1) =   1

     atomic species   valence    mass     pseudopotential
        C              4.00    12.01070     C ( 1.00)
        H              1.00     1.00794     H ( 1.00)
        N              5.00    14.00670     N ( 1.00)
        Ni            10.00    58.69340     Ni( 1.00)
        O              6.00    15.99940     O ( 1.00)

     Starting magnetic structure
     atomic species   magnetization
        C            0.000
        H            0.000
        N            0.000
        Ni           0.250
        O            0.000

     No symmetry found

   Cartesian axes

     site n.     atom                  positions (alat units)
         1           C   tau(   1) = (   0.5574254   1.9428615   0.8576972  )
         2           C   tau(   2) = (   0.0759460   0.0623006   0.0366554  )
         3           C   tau(   3) = (   0.7613774   0.0235735   0.8979675  )
         4           C   tau(   4) = (   0.2788093   1.9782998   0.0758247  )
         5           C   tau(   5) = (   0.8801573   1.9431659   1.0686561  )
         6           C   tau(   6) = (   0.3995851   0.0567867   0.2462965  )
         7           C   tau(   7) = (   0.3972033   1.0609159   0.8649271  )
         8           C   tau(   8) = (   0.9160753   0.9441600   0.0458504  )
         9           C   tau(   9) = (   0.4682005   1.2284080   0.9964628  )
        10           C   tau(  10) = (   0.9896845   0.7784605   0.1784739  )
        11           C   tau(  11) = (   0.4769962   1.7809433   0.9911521  )
        12           C   tau(  12) = (  -0.0016555   0.2247835   0.1712933  )
        13           C   tau(  13) = (   0.7894720   1.7812978   1.1954760  )
        14           C   tau(  14) = (   0.3115769   0.2194059   0.3743289  )
        15           C   tau(  15) = (   0.1512493   1.2196996   1.1951474  )
        16           C   tau(  16) = (   0.6734303   0.7843809   0.3769284  )
        17           C   tau(  17) = (   0.0701431   1.0516528   1.0702023  )
        18           C   tau(  18) = (   0.5897559   0.9507734   0.2509975  )
        19           C   tau(  19) = (   0.1963045   0.9699186   0.9039223  )
        20           C   tau(  20) = (   0.7138218   1.0327799   0.0832058  )
        21           C   tau(  21) = (   0.8496346   0.1989207   0.7667276  )
        22           C   tau(  22) = (   0.3278858   1.8020013   1.5867425  )
        23           C   tau(  23) = (   0.1176230   0.7900710   0.7733906  )
        24           C   tau(  24) = (   0.5968117   1.2100639   1.5923867  )
        25           H   tau(  25) = (   0.0396097   2.0004533   1.1066934  )
        26           H   tau(  26) = (   0.5583985   2.0001729   0.2836107  )
        27           H   tau(  27) = (   0.5010477   1.0032159   0.7382370  )
        28           H   tau(  28) = (  -0.0173167   1.0022185   1.5618915  )
        29           H   tau(  29) = (   0.6237108   1.3028638   0.9737873  )
        30           H   tau(  30) = (   0.1464781   0.7067065   0.1561451  )
        31           H   tau(  31) = (   0.3188852   1.7126803   0.9670915  )
        32           H   tau(  32) = (   0.8413733   0.2958846   0.1476960  )
        33           H   tau(  33) = (   0.8773021   1.7127804   1.3289144  )
        34           H   tau(  34) = (   0.4012392   0.2866134   0.5073993  )
        35           H   tau(  35) = (   0.0580985   1.2877183   1.3253767  )
        36           H   tau(  36) = (   0.5815079   0.7160698   0.5078167  )
        37           H   tau(  37) = (   0.2962105   1.9589784   0.6635362  )
        38           H   tau(  38) = (   0.7774952   0.0511627   1.4864579  )
        39           H   tau(  39) = (   0.7854180   1.0272921   1.2259958  )
        40           H   tau(  40) = (   0.3057310   0.9731271   0.4085459  )
        41           N   tau(  41) = (   0.5912202   1.7049293   1.1581371  )
        42           N   tau(  42) = (   0.1139590   0.2981378   0.3385740  )
        43           N   tau(  43) = (   0.3473934   1.3024713   1.1597967  )
        44           N   tau(  44) = (   0.8700476   0.7028550   0.3418423  )
        45           Ni  tau(  45) = (   0.4635628   1.5051113   1.3742078  )
        46           Ni  tau(  46) = (   0.9875994   0.4967040   0.5573198  )
        47           O   tau(  47) = (   0.2316209   0.6963678   0.6291172  )
        48           O   tau(  48) = (   0.7103381   1.3038072   1.4480936  )
        49           O   tau(  49) = (   0.7415322   0.2954339   0.6197595  )
        50           O   tau(  50) = (   0.2183012   1.7071304   1.4398270  )
        51           O   tau(  51) = (   0.9285576   0.7133339   0.7936309  )
        52           O   tau(  52) = (   0.4066087   1.2846559   1.6100834  )
        53           O   tau(  53) = (   0.0401684   0.2707008   0.7904826  )
        54           O   tau(  54) = (   0.5177231   1.7279720   1.6092980  )
        55           O   tau(  55) = (   0.4373454   0.0123676   0.6932427  )
        56           O   tau(  56) = (   0.9178632   1.9955023   1.5153986  )
        57           O   tau(  57) = (   0.8739547   0.9721337   1.1116146  )
        58           O   tau(  58) = (   0.3929026   1.0284037   0.2931771  )

     number of k points=     1  Marzari-Vanderbilt smearing, width (Ry)=  0.2000
                       cart. coord. in units 2pi/alat
        k(    1) = (   0.0000000   0.0000000   0.0000000), wk =   1.0000000

     Check: negative core charge=   -0.000145

     Initial potential from superposition of free atoms

     starting charge  223.99834, renormalised to  224.00000

     %%%%%%%%%%%%%%%%%%%%%%%%%%%%%%%%%%%%%%%%%%%%%%%%%%%%%%%%%%%%%%%%%%%%%%%%
     %                                                                      %
     % You are using vdW-DF, which was implemented by the Thonhauser group. %
     % Please cite the following two papers that made this development      %
     % possible and the two reviews that describe the various versions:     %
     %                                                                      %
     %   T. Thonhauser et al., PRL 115, 136402 (2015).                      %
     %   T. Thonhauser et al., PRB 76, 125112 (2007).                       %
     %   K. Berland et al., Rep. Prog. Phys. 78, 066501 (2015).             %
     %   D.C. Langreth et al., J. Phys.: Condens. Matter 21, 084203 (2009). %
     %                                                                      %
     %                                                                      %
     % If you are calculating the stress with vdW-DF, please also cite:     %
     %                                                                      %
     %   R. Sabatini et al., J. Phys.: Condens. Matter 24, 424209 (2012).   %
     %                                                                      %
     %%%%%%%%%%%%%%%%%%%%%%%%%%%%%%%%%%%%%%%%%%%%%%%%%%%%%%%%%%%%%%%%%%%%%%%%

[...]
O             0.4596051493        0.0028252029        0.4273224268
O             0.9542815286        0.9964187523        0.9313321608
O             0.8837841690        0.4902603713        0.6924141026
O             0.3841330034        0.5093460400        0.1909128996

     Writing output data file ./QE_relaxation_results/VDW_relax/NiPyC2_relax/NiPyC2_relax_meta_functionalized_OH_vdw-df2_relax.save/
     NEW-OLD atomic charge density approx. for the potential

     Check: negative core charge=   -0.000145

     Self-consistent Calculation

[...]

     Threshold (ethr) on eigenvalues was too large:
     Diagonalizing with lowered threshold

     Davidson diagonalization with overlap
     ethr =  1.20E-08,  avg # of iterations =  3.0

[...]

     total energy              =    -951.32618341 Ry
     Harris-Foulkes estimate   =    -951.32618339 Ry
     estimated scf accuracy    <       0.00000002 Ry

[...]

     iteration # 10     ecut=   100.00 Ry     beta= 0.70
     Davidson diagonalization with overlap
     ethr =  7.56E-12,  avg # of iterations =  4.0

     Magnetic moment per site:
     atom:    1    charge:    0.8076    magn:    0.0021    constr:    0.0000
     atom:    2    charge:    0.8191    magn:    0.0022    constr:    0.0000
     atom:    3    charge:    0.7461    magn:    0.0069    constr:    0.0000
     atom:    4    charge:    0.7548    magn:    0.0068    constr:    0.0000
     atom:    5    charge:    0.6422    magn:    0.0048    constr:    0.0000
     atom:    6    charge:    0.6358    magn:    0.0048    constr:    0.0000
     atom:    7    charge:    0.8346    magn:    0.0030    constr:    0.0000
     atom:    8    charge:    0.8383    magn:    0.0031    constr:    0.0000
     atom:    9    charge:    0.8293    magn:    0.0072    constr:    0.0000
     atom:   10    charge:    0.8261    magn:    0.0072    constr:    0.0000
     atom:   11    charge:    0.8348    magn:    0.0081    constr:    0.0000
     atom:   12    charge:    0.8426    magn:    0.0082    constr:    0.0000
     atom:   13    charge:    0.6464    magn:    0.0072    constr:    0.0000
     atom:   14    charge:    0.6294    magn:    0.0074    constr:    0.0000
     atom:   15    charge:    0.8266    magn:    0.0084    constr:    0.0000
     atom:   16    charge:    0.8305    magn:    0.0084    constr:    0.0000
     atom:   17    charge:    0.8229    magn:    0.0018    constr:    0.0000
     atom:   18    charge:    0.8244    magn:    0.0019    constr:    0.0000
     atom:   19    charge:    0.8461    magn:    0.0058    constr:    0.0000
     atom:   20    charge:    0.8483    magn:    0.0060    constr:    0.0000
     atom:   21    charge:    0.7619    magn:   -0.0022    constr:    0.0000
     atom:   22    charge:    0.7648    magn:   -0.0023    constr:    0.0000
     atom:   23    charge:    0.8170    magn:   -0.0018    constr:    0.0000
     atom:   24    charge:    0.8152    magn:   -0.0020    constr:    0.0000
     atom:   25    charge:    0.2334    magn:   -0.0004    constr:    0.0000
     atom:   26    charge:    0.2181    magn:   -0.0003    constr:    0.0000
     atom:   27    charge:    0.3037    magn:   -0.0007    constr:    0.0000
     atom:   28    charge:    0.3179    magn:   -0.0008    constr:    0.0000
     atom:   29    charge:    0.3302    magn:   -0.0008    constr:    0.0000
     atom:   30    charge:    0.3274    magn:   -0.0008    constr:    0.0000
     atom:   31    charge:    0.3761    magn:   -0.0008    constr:    0.0000
     atom:   32    charge:    0.3831    magn:   -0.0008    constr:    0.0000
     atom:   33    charge:    0.2465    magn:   -0.0002    constr:    0.0000
     atom:   34    charge:    0.2257    magn:   -0.0001    constr:    0.0000
     atom:   35    charge:    0.4564    magn:   -0.0007    constr:    0.0000
     atom:   36    charge:    0.4539    magn:   -0.0007    constr:    0.0000
     atom:   37    charge:    0.2773    magn:   -0.0001    constr:    0.0000
     atom:   38    charge:    0.2561    magn:   -0.0000    constr:    0.0000
     atom:   39    charge:    0.5438    magn:    0.0003    constr:    0.0000
     atom:   40    charge:    0.5172    magn:    0.0001    constr:    0.0000
     atom:   41    charge:    2.3039    magn:    0.0087    constr:    0.0000
     atom:   42    charge:    2.2912    magn:    0.0084    constr:    0.0000
     atom:   43    charge:    2.3944    magn:    0.0095    constr:    0.0000
     atom:   44    charge:    2.4034    magn:    0.0099    constr:    0.0000
     atom:   45    charge:    7.4554    magn:    1.2311    constr:    0.0000
     atom:   46    charge:    7.4544    magn:    1.2296    constr:    0.0000
     atom:   47    charge:    1.6223    magn:    0.0265    constr:    0.0000
     atom:   48    charge:    1.6429    magn:    0.0272    constr:    0.0000
     atom:   49    charge:    1.8072    magn:    0.0328    constr:    0.0000
     atom:   50    charge:    1.6670    magn:    0.0303    constr:    0.0000
     atom:   51    charge:    1.8107    magn:    0.0316    constr:    0.0000
     atom:   52    charge:    1.8569    magn:    0.0338    constr:    0.0000
     atom:   53    charge:    1.6860    magn:    0.0343    constr:    0.0000
     atom:   54    charge:    1.7835    magn:    0.0367    constr:    0.0000
     atom:   55    charge:    1.9433    magn:    0.0094    constr:    0.0000
     atom:   56    charge:    1.9241    magn:    0.0091    constr:    0.0000
     atom:   57    charge:    1.7406    magn:    0.0095    constr:    0.0000
     atom:   58    charge:    1.8039    magn:    0.0100    constr:    0.0000

     End of self-consistent calculation

 ------ SPIN UP ------------

[...]

 ------ SPIN DOWN ----------

          k = 0.0000 0.0000 0.0000 ( 45819 PWs)   bands (ev):

   -22.0179 -22.0064 -21.9104 -21.7806 -21.7177 -21.6392 -21.6109 -21.5393
   -19.0131 -18.9918 -18.9401 -18.9318 -18.8909 -18.8805 -18.8485 -18.8379
   -15.3022 -15.2505 -15.2178 -15.2113 -13.9948 -13.9757 -13.9125 -13.8196
   -11.7216 -11.6582 -11.6311 -11.5997 -11.2085 -11.1481 -11.0822 -11.0398
    -9.4908  -9.3075  -9.1527  -9.0507  -9.0348  -8.9803  -8.9581  -8.8956
    -7.9178  -7.5800  -7.5413  -7.5057  -7.4887  -7.3792  -6.9973  -6.8710
    -6.6085  -6.3956  -6.3883  -6.2821  -6.1872  -6.1378  -6.1028  -6.0927
    -6.0368  -5.9792  -5.9031  -5.8463  -5.8037  -5.7870  -5.7527  -5.7149
    -5.5570  -5.3291  -5.1086  -4.9316  -4.7674  -4.7342  -4.6755  -4.6592
    -4.5523  -4.5129  -4.4526  -4.3380  -4.3333  -4.2754  -4.2100  -4.1367
    -4.0189  -3.5513  -3.2734  -3.2464  -3.1287  -2.7775  -2.6999  -2.5654
    -2.4819  -2.4545  -2.3532  -2.2699  -2.2231  -2.1606  -2.0160  -1.9756
    -1.8429  -1.8304  -1.6068  -1.5714  -1.2336  -1.1054  -1.0057  -1.0020
    -0.9497  -0.9350  -0.8132  -0.7559  -0.6249  -0.6138   0.8037   0.8320
     0.9341   0.9625   2.1712   2.1798   2.2080   2.3341   2.7502   3.2603
     3.4360   3.5091   3.8311   3.8523   4.1385   4.5241   4.6247   4.8109
     4.8631   4.9419   5.0931   5.1722   5.3635   5.8175   6.0812   6.0922
     6.3256

     the spin up/dw Fermi energies are     0.5533    0.2558 ev

!    total energy              =    -951.32618340 Ry
     Harris-Foulkes estimate   =    -951.32618342 Ry
     estimated scf accuracy    <          2.9E-09 Ry

     The total energy is the sum of the following terms:

     one-electron contribution =   -1297.56474675 Ry
     hartree contribution      =     733.91657198 Ry
     xc contribution           =    -287.95803136 Ry
     ewald contribution        =    -100.80440136 Ry
     Dispersion Correction     =      -0.24911245 Ry
     smearing contrib. (-TS)   =       1.33353653 Ry

     total magnetization       =     4.00 Bohr mag/cell
     absolute magnetization    =     4.16 Bohr mag/cell

     convergence has been achieved in  10 iterations

     Forces acting on atoms (cartesian axes, Ry/au):

     atom    1 type  1   force =     0.00009541    0.00009166    0.00003221
     atom    2 type  1   force =     0.00016758    0.00004134    0.00023954
     atom    3 type  1   force =    -0.00018505   -0.00015092    0.00055135
     atom    4 type  1   force =     0.00026110    0.00003854    0.00018400
     atom    5 type  1   force =    -0.00024084   -0.00020448    0.00024692
     atom    6 type  1   force =     0.00040028   -0.00010881   -0.00008029
     atom    7 type  1   force =     0.00046576    0.00023553   -0.00041385
     atom    8 type  1   force =    -0.00031037   -0.00021745    0.00009461
     atom    9 type  1   force =    -0.00034730    0.00011633    0.00061966
     atom   10 type  1   force =     0.00015762   -0.00010629    0.00030053
     atom   11 type  1   force =    -0.00018176   -0.00023070   -0.00047362
     atom   12 type  1   force =     0.00074311    0.00062063   -0.00034137
     atom   13 type  1   force =    -0.00024112   -0.00063138   -0.00005697
     atom   14 type  1   force =    -0.00029534    0.00040707   -0.00022903
     atom   15 type  1   force =    -0.00009942    0.00013678    0.00030664
     atom   16 type  1   force =     0.00071889    0.00038381   -0.00024849
     atom   17 type  1   force =    -0.00022265   -0.00047141   -0.00042909
     atom   18 type  1   force =     0.00012198   -0.00038950    0.00031411
     atom   19 type  1   force =     0.00041259   -0.00001702    0.00018234
     atom   20 type  1   force =    -0.00027140   -0.00010436    0.00002025
     atom   21 type  1   force =     0.00056744   -0.00047687   -0.00031851
     atom   22 type  1   force =     0.00017896    0.00053543   -0.00049356
     atom   23 type  1   force =     0.00038566   -0.00021798    0.00046564
     atom   24 type  1   force =     0.00014117    0.00014055    0.00005887
     atom   25 type  2   force =     0.00021602   -0.00040422    0.00026323
     atom   26 type  2   force =     0.00032687    0.00000477    0.00004428
     atom   27 type  2   force =     0.00024125    0.00011325   -0.00071379
     atom   28 type  2   force =    -0.00054392    0.00013893   -0.00016655
     atom   29 type  2   force =    -0.00013096   -0.00001381   -0.00030670
     atom   30 type  2   force =    -0.00004014    0.00011729   -0.00030975
     atom   31 type  2   force =    -0.00031237   -0.00054728    0.00004736
     atom   32 type  2   force =     0.00017745   -0.00007680   -0.00042750
     atom   33 type  2   force =     0.00040558   -0.00014075    0.00005352
     atom   34 type  2   force =    -0.00018808   -0.00006166    0.00004605
     atom   35 type  2   force =     0.00015279   -0.00012357   -0.00058242
     atom   36 type  2   force =    -0.00009904    0.00004933    0.00045846
     atom   37 type  2   force =     0.00003222   -0.00028576    0.00041050
     atom   38 type  2   force =    -0.00002380    0.00044845   -0.00003027
     atom   39 type  2   force =     0.00015207   -0.00029223   -0.00022955
     atom   40 type  2   force =     0.00024281    0.00006960   -0.00009528
     atom   41 type  3   force =    -0.00054976    0.00044378    0.00024417
     atom   42 type  3   force =    -0.00013298   -0.00005343    0.00029756
     atom   43 type  3   force =    -0.00009553    0.00027638   -0.00040848
     atom   44 type  3   force =    -0.00035374   -0.00060223    0.00034172
     atom   45 type  4   force =     0.00013583    0.00009802    0.00064618
     atom   46 type  4   force =    -0.00000740    0.00019134   -0.00009758
     atom   47 type  5   force =    -0.00004764   -0.00060280    0.00011650
     atom   48 type  5   force =    -0.00047064    0.00024025   -0.00021157
     atom   49 type  5   force =     0.00021394   -0.00011238   -0.00018246
     atom   50 type  5   force =    -0.00030569   -0.00061279   -0.00007547
     atom   51 type  5   force =    -0.00013880    0.00088658   -0.00040176
     atom   52 type  5   force =     0.00003663    0.00026709    0.00009224
     atom   53 type  5   force =    -0.00036470    0.00055245    0.00000382
     atom   54 type  5   force =    -0.00013290    0.00017088    0.00024625
     atom   55 type  5   force =    -0.00044633    0.00016833   -0.00045177
     atom   56 type  5   force =     0.00026399   -0.00004579    0.00037652
     atom   57 type  5   force =    -0.00023269   -0.00022210   -0.00013928
     atom   58 type  5   force =    -0.00040263    0.00054038    0.00060996

     Total force =     0.004237     Total SCF correction =     0.000142

     bfgs converged in  60 scf cycles and  59 bfgs steps
     (criteria: energy <  1.0E-04 Ry, force <  1.0E-03 Ry/Bohr)

     End of BFGS Geometry Optimization

     Final energy   =    -951.3261834014 Ry
Begin final coordinates

ATOMIC_POSITIONS (crystal)
C             0.5865642203        0.9602388646        0.5184509029
C             0.0844713057        0.0394149653        0.0206714006
C             0.8020394224       -0.0034879998        0.5332405075
C             0.3002196023        1.0028071058        0.0343406287
C             0.9295298370        0.9483981125        0.6295254729
C             0.4294776791        0.0515113685        0.1293440635
C             0.3941176845        0.5290694627        0.5346207988
C             0.8957399932        0.4712674389        0.0341626081
C             0.4682258499        0.6163558321        0.6061518991
C             0.9715587553        0.3852173559        0.1077579610
C             0.5108952057        0.8807550083        0.6034561804
C             0.0112177926        0.1198592886        0.1053072633
C             0.8448273459        0.8686657787        0.7089645100
C             0.3472516885        0.1322268346        0.2082720644
C             0.1607969278        0.6186016233        0.7319282370
C             0.6648754969        0.3832435290        0.2335889508
C             0.0718381732        0.5307331445        0.6606571671
C             0.5736947838        0.4697075761        0.1602483923
C             0.1933496320        0.4852672214        0.5584688072
C             0.6939605378        0.5144878673        0.0569615704
C             0.8830763087        0.0869268180        0.4579052226
C             0.3806608609        0.9122407200        0.9587120816
C             0.1163679667        0.3971069302        0.4769054278
C             0.6129800718        0.6010609358        0.9736934897
H             0.0908107383        0.9747856532        0.6486046050
H             0.5909105414        1.0248867882        0.1476841822
H             0.4952544667        0.4959386469        0.4619456363
H            -0.0035528708        0.5033119748        0.9604774138
H             0.6205734845        0.6523941394        0.5887057957
H             0.1241073462        0.3493962355        0.0903486636
H             0.3479987359        0.8531338897        0.5945795947
H             0.8484566418        0.1479333556        0.0974569710
H             0.9379570630        0.8316860791        0.7848194923
H             0.4423733881        0.1695805431        0.2830062311
H             0.0768681768        0.6527790766        0.8121895155
H             0.5808884563        0.3492787642        0.3138963067
H             0.3125671309        0.9799623021        0.4388927185
H             0.8082520628        0.0202727279        0.9443179456
H             0.8241628863        0.5353374915        0.7618776240
H             0.3259174921        0.4651244713        0.2615281948
N             0.6364568190        0.8391476535        0.6976603980
N             0.1390246801        0.1620584077        0.1979698305
N             0.3528811886        0.6582741150        0.7046719360
N             0.8579499896        0.3440399050        0.2074246644
Ni            0.4940837956        0.7528801445        0.8367664867
Ni            1.0004197941        0.2469783455        0.3398420368
O             0.2299892325        0.3646151395        0.3789939634
O             0.7260458120        0.6351592248        0.8763182777
O             0.7685343360        0.1381083109        0.3718702101
O             0.2688184989        0.8652431935        0.8679932655
O             0.9403177148        0.3473317570        0.4929716933
O             0.4334388276        0.6477813036        0.9882828173
O             0.0751866571        0.1218092821        0.4756704367
O             0.5687919213        0.8733299297        0.9797118954
O             0.4596051493        0.0028252029        0.4273224268
O             0.9542815286        0.9964187523        0.9313321608
O             0.8837841690        0.4902603713        0.6924141026
O             0.3841330034        0.5093460400        0.1909128996
End final coordinates

     Writing output data file ./QE_relaxation_results/VDW_relax/NiPyC2_relax/NiPyC2_relax_meta_functionalized_OH_vdw-df2_relax.save/

     General routines

     Parallel routines

   This run was terminated on:  21:53:41   8Jun2020

   JOB DONE.
QE finished Mon Jun 8 21:53:41 PDT 2020