     Program PWSCF v.6.5 starts on 29May2020 at 18:51:27

     K-points division:     npool     =       2
     R & G space division:  proc/nbgrp/npool/nimage =       8
     Reading input from QE_input_scripts/pw.NiPyC2_P1.vc-relax.in

     Current dimensions of program PWSCF are:
     Max number of different atomic species (ntypx) = 10
     Max number of k-points (npk) =  40000
     Max angular momentum in pseudopotentials (lmaxx) =  3

     Parameters for Dispersion (Grimme-D2) Correction:
       atom      VdW radius       C_6

        Ni2        2.952        374.666
        Ni1        2.952        374.666
        O          2.536         24.284
        N          2.640         42.670
        C          2.744         60.710
        H          1.892          4.857

     gamma-point specific algorithms are used

     Subspace diagonalization in iterative solution of the eigenvalue problem:
     a serial algorithm will be used

     bravais-lattice index     =            0
     lattice parameter (alat)  =      11.8161  a.u.
     unit-cell volume          =    5429.3114 (a.u.)^3
     number of atoms/cell      =           54
     number of atomic types    =            6
     number of electrons       =       200.00 (up: 102.00, down:  98.00)
     number of Kohn-Sham states=          122
     kinetic-energy cutoff     =     100.0000  Ry
     charge density cutoff     =     400.0000  Ry
     convergence threshold     =      1.0E-06
     mixing beta               =       0.7000
     number of iterations used =            8  local-TF  mixing
     Exchange-correlation= PBESOL
                           (   1   4  10   8   0   0   0)
     nstep                     =          200

     celldm(1)=  11.816080  celldm(2)=   0.000000  celldm(3)=   0.000000
     celldm(4)=   0.000000  celldm(5)=   0.000000  celldm(6)=   0.000000

     crystal axes: (cart. coord. in units of alat)
               a(1) = (   1.000000   0.000000   0.000000 )
               a(2) = (   0.000000   2.002847   0.000000 )
               a(3) = (  -0.036399   0.000000   1.643149 )

     reciprocal axes: (cart. coord. in units 2 pi/alat)
               b(1) = (  1.000000  0.000000  0.022152 )
               b(2) = (  0.000000  0.499289  0.000000 )
               b(3) = (  0.000000  0.000000  0.608588 )

     PseudoPot. # 1 for Ni read from file:
     ./pseudo/Ni.pbesol-n-nc.UPF
     MD5 check sum: 623411631e0c2eb7c0b2b9815547d2d9
     Pseudo is Norm-conserving + core correction, Zval = 10.0
     Generated using "atomic" code by A. Dal Corso v.6.5
     Using radial grid of 1195 points,  2 beta functions with:
                l(1) =   1
                l(2) =   2

[...]

     PseudoPot. # 3 for O  read from file:
     ./pseudo/O.pbesol-nc.UPF
     MD5 check sum: 73d10e7e91dbfcbe8a7e362101007f84
     Pseudo is Norm-conserving, Zval =  6.0
     Generated using "atomic" code by A. Dal Corso v.6.5
     Using radial grid of 1095 points,  1 beta functions with:
                l(1) =   1

     PseudoPot. # 4 for N  read from file:
     ./pseudo/N.pbesol-nc.UPF
     MD5 check sum: e18cc5e4b8a5600c1a19b30c2cab1ca0
     Pseudo is Norm-conserving, Zval =  5.0
     Generated using "atomic" code by A. Dal Corso v.6.5
     Using radial grid of 1085 points,  1 beta functions with:
                l(1) =   1

     PseudoPot. # 5 for C  read from file:
     ./pseudo/C.pbesol-nc.UPF
     MD5 check sum: ce26087537ded160c8d400e183a8bf42
     Pseudo is Norm-conserving, Zval =  4.0
     Generated using "atomic" code by A. Dal Corso v.6.5
     Using radial grid of 1073 points,  1 beta functions with:
                l(1) =   1

     PseudoPot. # 6 for H  read from file:
     ./pseudo/H.pbesol-n-nc.UPF
     MD5 check sum: 7995ef24074557c85b430109caaacc09
     Pseudo is Norm-conserving, Zval =  1.0
     Generated using "atomic" code by A. Dal Corso v.6.5
     Using radial grid of  929 points,  0 beta functions with:

     atomic species   valence    mass     pseudopotential
        Ni2           10.00    58.69340     Ni( 1.00)
        Ni1           10.00    58.69340     Ni( 1.00)
        O              6.00    15.99940     O ( 1.00)
        N              5.00    14.00670     N ( 1.00)
        C              4.00    12.01070     C ( 1.00)
        H              1.00     1.00794     H ( 1.00)

     Starting magnetic structure
     atomic species   magnetization
        Ni2          0.250
        Ni1          0.250
        O            0.000
        N            0.000
        C            0.000
        H            0.000

     No symmetry found

   Cartesian axes

     site n.     atom                  positions (alat units)
         1           Ni2 tau(   1) = (   0.4642458   1.5100663   1.3793082  )
         2           O   tau(   2) = (   0.2269989   0.7002353   0.6455930  )
         3           O   tau(   3) = (   0.7414252   0.2665388   0.6082936  )
         4           O   tau(   4) = (   0.9187989   0.7054627   0.8171378  )
         5           O   tau(   5) = (   0.0492397   0.2399410   0.7791810  )
         6           N   tau(   6) = (   0.6025592   1.6881995   1.1439600  )
         7           N   tau(   7) = (   0.3350713   1.2940393   1.1750155  )
         8           C   tau(   8) = (   0.5691129   1.9213309   0.8435924  )
         9           H   tau(   9) = (   0.4840353   1.9752074   0.7297223  )
        10           C   tau(  10) = (   0.7737740   1.9988410   0.8769484  )
        11           C   tau(  11) = (   0.8939722   1.9119175   1.0440566  )
        12           H   tau(  12) = (   0.0365226   1.9583835   1.0688681  )
        13           C   tau(  13) = (   0.3878954   1.0396777   0.8940371  )
        14           H   tau(  14) = (   0.4777087   0.9833977   0.7850964  )
        15           C   tau(  15) = (   0.4576709   1.2081171   1.0215454  )
        16           H   tau(  16) = (   0.5969732   1.2643971   0.9988700  )
        17           C   tau(  17) = (   0.4898428   1.7643077   0.9776734  )
        18           H   tau(  18) = (   0.3510215   1.7084283   0.9515473  )
        19           C   tau(  19) = (   0.8025222   1.7578986   1.1727151  )
        20           H   tau(  20) = (   0.8848144   1.6990149   1.2859280  )
        21           C   tau(  21) = (   0.1377615   1.2107208   1.2070569  )
        22           H   tau(  22) = (   0.0501555   1.2710065   1.3156690  )
        23           C   tau(  23) = (   0.0584822   1.0420812   1.0887502  )
        24           H   tau(  24) = (   0.9198816   0.9864020   1.1158622  )
        25           C   tau(  25) = (   0.1873493   0.9553579   0.9277216  )
        26           C   tau(  26) = (   0.8614386   0.1788542   0.7476326  )
        27           C   tau(  27) = (   0.1044740   0.7734994   0.7911760  )
        28           Ni1 tau(  28) = (   0.9824452   0.4927804   0.5577339  )
        29           O   tau(  29) = (   0.7087996   1.3026115   1.4671673  )
        30           O   tau(  30) = (   0.2232258   1.7363079   1.4298678  )
        31           O   tau(  31) = (   0.4005995   1.2973840   1.6387120  )
        32           O   tau(  32) = (   0.5310404   1.7629057   1.6007553  )
        33           N   tau(  33) = (   0.1207586   0.3146472   0.3223857  )
        34           N   tau(  34) = (   0.8532706   0.7088075   0.3534412  )
        35           C   tau(  35) = (   0.0873123   0.0815159   0.0220182  )
        36           H   tau(  36) = (  -0.0341640   0.0276393   1.5512965  )
        37           C   tau(  37) = (   0.2919734   0.0040057   0.0553741  )
        38           C   tau(  38) = (   0.4121716   0.0909292   0.2224823  )
        39           H   tau(  39) = (   0.5547220   0.0444632   0.2472939  )
        40           C   tau(  40) = (   0.9060948   0.9631690   0.0724628  )
        41           H   tau(  41) = (   0.9595093   1.0194490   1.6066706  )
        42           C   tau(  42) = (   0.9758703   0.7947296   0.1999712  )
        43           H   tau(  43) = (   0.1151726   0.7384496   0.1772957  )
        44           C   tau(  44) = (   0.0080421   0.2385390   0.1560991  )
        45           H   tau(  45) = (   0.8692209   0.2944185   0.1299730  )
        46           C   tau(  46) = (   0.3207216   0.2449482   0.3511408  )
        47           H   tau(  47) = (   0.4030137   0.3038318   0.4643538  )
        48           C   tau(  48) = (   0.6559609   0.7921259   0.3854826  )
        49           H   tau(  49) = (   0.5683549   0.7318402   0.4940948  )
        50           C   tau(  50) = (   0.5766816   0.9607656   0.2671759  )
        51           H   tau(  51) = (   0.4380810   1.0164447   0.2942879  )
        52           C   tau(  52) = (   0.7055486   1.0474888   0.1061474  )
        53           C   tau(  53) = (   0.3432392   1.8239925   1.5692068  )
        54           C   tau(  54) = (   0.5862746   1.2293473   1.6127503  )

     number of k points=     1  Marzari-Vanderbilt smearing, width (Ry)=  0.2000
                       cart. coord. in units 2pi/alat
        k(    1) = (   0.0000000   0.0000000   0.0000000), wk =   1.0000000

     Check: negative core charge=   -0.000145

     Initial potential from superposition of free atoms

     starting charge  199.99835, renormalised to  200.00000
     Starting wfcs are  178 randomized atomic wfcs

     Self-consistent Calculation

     iteration #  1     ecut=   100.00 Ry     beta= 0.70
     Davidson diagonalization with overlap
     ethr =  1.00E-02,  avg # of iterations =  4.0

     total energy              =    -808.50799022 Ry
     Harris-Foulkes estimate   =    -813.53961135 Ry
     estimated scf accuracy    <      13.16605648 Ry

     total magnetization       =     4.00 Bohr mag/cell
     absolute magnetization    =     4.57 Bohr mag/cell

[...]

     Magnetic moment per site:
     atom:    1    charge:    7.5197    magn:    1.2591    constr:    0.0000
     atom:    2    charge:    3.1214    magn:    0.0530    constr:    0.0000
     atom:    3    charge:    3.1196    magn:    0.0537    constr:    0.0000
     atom:    4    charge:    3.1293    magn:    0.0507    constr:    0.0000
     atom:    5    charge:    3.1279    magn:    0.0529    constr:    0.0000
     atom:    6    charge:    2.4097    magn:    0.0143    constr:    0.0000
     atom:    7    charge:    2.4038    magn:    0.0134    constr:    0.0000
     atom:    8    charge:    0.5999    magn:    0.0036    constr:    0.0000
     atom:    9    charge:    0.4555    magn:   -0.0007    constr:    0.0000
     atom:   10    charge:    0.5735    magn:    0.0039    constr:    0.0000
     atom:   11    charge:    0.5988    magn:    0.0038    constr:    0.0000
     atom:   12    charge:    0.4555    magn:   -0.0008    constr:    0.0000
     atom:   13    charge:    0.6004    magn:    0.0036    constr:    0.0000
     atom:   14    charge:    0.4562    magn:   -0.0007    constr:    0.0000
     atom:   15    charge:    0.5923    magn:    0.0032    constr:    0.0000
     atom:   16    charge:    0.4597    magn:   -0.0005    constr:    0.0000
     atom:   17    charge:    0.5935    magn:    0.0033    constr:    0.0000
     atom:   18    charge:    0.4599    magn:   -0.0006    constr:    0.0000
[...]
        N              5.00    14.00670     N ( 1.00)
        C              4.00    12.01070     C ( 1.00)
        H              1.00     1.00794     H ( 1.00)

     Starting magnetic structure
     atomic species   magnetization
        Ni2          0.140
        Ni1          0.138
        O            0.022
        N            0.007
        C            0.007
        H           -0.002

     No symmetry found

   Cartesian axes

     site n.     atom                  positions (alat units)
         1           Ni2 tau(   1) = (   0.5070721   1.2970537   1.4951980  )
         2           O   tau(   2) = (   0.2288321   0.6146886   0.6753510  )
         3           O   tau(   3) = (   0.8293129   0.2291023   0.6569447  )
         4           O   tau(   4) = (   1.0073742   0.6357621   0.8347808  )
         5           O   tau(   5) = (   0.0430088   0.2006748   0.8281601  )
         6           N   tau(   6) = (   0.6366834   1.4785432   1.2766557  )
         7           N   tau(   7) = (   0.3874870   1.1087207   1.2813820  )
         8           C   tau(   8) = (   0.6139576   1.6782608   0.9526761  )
         9           H   tau(   9) = (   0.5169889   1.7416246   0.8232648  )
        10           C   tau(  10) = (   0.8334785   1.7209749   0.9667752  )
        11           C   tau(  11) = (   0.9537992   1.6394995   1.1366455  )
        12           H   tau(  12) = (   0.0367594   1.6714176   1.1528982  )
        13           C   tau(  13) = (   0.4240293   0.8962826   0.9679391  )
        14           H   tau(  14) = (   0.5247781   0.8296230   0.8432486  )
        15           C   tau(  15) = (   0.5115370   1.0284653   1.1242915  )
        16           H   tau(  16) = (   0.6804951   1.0712822   1.1270793  )
        17           C   tau(  17) = (   0.5193210   1.5548449   1.1126686  )
        18           H   tau(  18) = (   0.3492328   1.5162068   1.1127306  )
        19           C   tau(  19) = (   0.8487991   1.5165491   1.2905183  )
        20           H   tau(  20) = (   0.9321095   1.4466978   1.4264402  )
        21           C   tau(  21) = (   0.1759988   1.0671400   1.2917089  )
        22           H   tau(  22) = (   0.0878195   1.1414685   1.4221678  )
        23           C   tau(  23) = (   0.0781612   0.9349278   1.1410938  )
        24           H   tau(  24) = (   0.9954939   0.9001631   1.1537182  )
        25           C   tau(  25) = (   0.2055661   0.8490837   0.9789674  )
        26           C   tau(  26) = (   0.9338220   0.1419567   0.8121548  )
        27           C   tau(  27) = (   0.1151086   0.6996962   0.8255481  )
        28           Ni1 tau(  28) = (   1.0755082   0.4236575   0.6073695  )
        29           O   tau(  29) = (   0.7557091   1.1076749   1.5648434  )
        30           O   tau(  30) = (   0.2625372   1.4914960   1.5532752  )
        31           O   tau(  31) = (   0.4486644   1.0822128   1.7249687  )
        32           O   tau(  32) = (   0.5668675   1.5180689   1.7186189  )
        33           N   tau(  33) = (   0.1181014   0.2428788   0.3873048  )
        34           N   tau(  34) = (   0.9556465   0.6146466   0.3896613  )
        35           C   tau(  35) = (   0.0904276   0.0429448   0.0636403  )
        36           H   tau(  36) = (  -0.0451245  -0.0195465   1.7240487  )
        37           C   tau(  37) = (   0.3099627  -0.0006456   0.0745557  )
        38           C   tau(  38) = (   0.4328499   0.0812058   0.2424255  )
        39           H   tau(  39) = (   0.6033514   0.0496057   0.2561725  )
        40           C   tau(  40) = (   0.9929975   0.8276878   0.0752270  )
        41           H   tau(  41) = (   1.0591003   0.8933075   1.7398737  )
        42           C   tau(  42) = (   1.0797152   0.6955146   0.2328698  )
        43           H   tau(  43) = (   0.1615530   0.6531474   0.2361155  )
        44           C   tau(  44) = (  -0.0016021   0.1663736   0.2251212  )
        45           H   tau(  45) = (   0.9157023   0.2049517   0.2277955  )
        46           C   tau(  46) = (   0.3303123   0.2047142   0.3976670  )
        47           H   tau(  47) = (   0.4160709   0.2747780   0.5320083  )
        48           C   tau(  48) = (   0.7441558   0.6568720   0.3978474  )
        49           H   tau(  49) = (   0.6547058   0.5830183   0.5277010  )
        50           C   tau(  50) = (   0.6469517   0.7887986   0.2460475  )
        51           H   tau(  51) = (   0.4767481   0.8225015   0.2574678  )
        52           C   tau(  52) = (   0.7742152   0.8747756   0.0836143  )
        53           C   tau(  53) = (   0.3705871   1.5777131   1.7067944  )
        54           C   tau(  54) = (   0.6450290   1.0219925   1.7163050  )

     number of k points=     1  Marzari-Vanderbilt smearing, width (Ry)=  0.2000
                       cart. coord. in units 2pi/alat
        k(    1) = (   0.0000000   0.0000000   0.0000000), wk =   1.0000000

     Check: negative core charge=   -0.000143

     Initial potential from superposition of free atoms

     starting charge  199.99835, renormalised to  200.00000
     Starting wfcs are  178 randomized atomic wfcs

     Self-consistent Calculation

     iteration #  1     ecut=   100.00 Ry     beta= 0.70
     Davidson diagonalization with overlap
     c_bands:  3 eigenvalues not converged
     ethr =  1.00E-06,  avg # of iterations = 20.0

[...]

     total energy              =    -811.24850537 Ry
     Harris-Foulkes estimate   =    -811.24850537 Ry
     estimated scf accuracy    <       0.00000001 Ry

[...]

     iteration # 22     ecut=   100.00 Ry     beta= 0.70
     Davidson diagonalization with overlap
     ethr =  5.45E-12,  avg # of iterations =  3.0

     Magnetic moment per site:
     atom:    1    charge:    7.3290    magn:    1.0336    constr:    0.0000
     atom:    2    charge:    3.1181    magn:    0.0666    constr:    0.0000
     atom:    3    charge:    3.1176    magn:    0.0680    constr:    0.0000
     atom:    4    charge:    3.1193    magn:    0.0685    constr:    0.0000
     atom:    5    charge:    3.1163    magn:    0.0705    constr:    0.0000
     atom:    6    charge:    2.4089    magn:    0.0197    constr:    0.0000
     atom:    7    charge:    2.4111    magn:    0.0189    constr:    0.0000
     atom:    8    charge:    0.5737    magn:    0.0055    constr:    0.0000
     atom:    9    charge:    0.3686    magn:   -0.0012    constr:    0.0000
     atom:   10    charge:    0.5759    magn:    0.0043    constr:    0.0000
     atom:   11    charge:    0.5740    magn:    0.0055    constr:    0.0000
     atom:   12    charge:    0.3685    magn:   -0.0015    constr:    0.0000
     atom:   13    charge:    0.5747    magn:    0.0054    constr:    0.0000
     atom:   14    charge:    0.3690    magn:   -0.0012    constr:    0.0000
     atom:   15    charge:    0.5682    magn:    0.0048    constr:    0.0000
     atom:   16    charge:    0.3699    magn:   -0.0011    constr:    0.0000
     atom:   17    charge:    0.5671    magn:    0.0048    constr:    0.0000
     atom:   18    charge:    0.3697    magn:   -0.0012    constr:    0.0000
     atom:   19    charge:    0.5679    magn:    0.0047    constr:    0.0000
     atom:   20    charge:    0.3688    magn:   -0.0008    constr:    0.0000
     atom:   21    charge:    0.5680    magn:    0.0047    constr:    0.0000
     atom:   22    charge:    0.3681    magn:   -0.0008    constr:    0.0000
     atom:   23    charge:    0.5742    magn:    0.0054    constr:    0.0000
     atom:   24    charge:    0.3685    magn:   -0.0015    constr:    0.0000
     atom:   25    charge:    0.5773    magn:    0.0042    constr:    0.0000
     atom:   26    charge:    0.5546    magn:   -0.0013    constr:    0.0000
     atom:   27    charge:    0.5556    magn:   -0.0012    constr:    0.0000
     atom:   28    charge:    7.3901    magn:    1.0280    constr:    0.0000
     atom:   29    charge:    3.1181    magn:    0.0698    constr:    0.0000
     atom:   30    charge:    3.1175    magn:    0.0692    constr:    0.0000
     atom:   31    charge:    3.1169    magn:    0.0714    constr:    0.0000
     atom:   32    charge:    3.1173    magn:    0.0709    constr:    0.0000
     atom:   33    charge:    2.4087    magn:    0.0198    constr:    0.0000
     atom:   34    charge:    2.4085    magn:    0.0197    constr:    0.0000
     atom:   35    charge:    0.5735    magn:    0.0056    constr:    0.0000
     atom:   36    charge:    0.3690    magn:   -0.0012    constr:    0.0000
     atom:   37    charge:    0.5757    magn:    0.0043    constr:    0.0000
     atom:   38    charge:    0.5728    magn:    0.0055    constr:    0.0000
     atom:   39    charge:    0.3687    magn:   -0.0015    constr:    0.0000
     atom:   40    charge:    0.5728    magn:    0.0055    constr:    0.0000
     atom:   41    charge:    0.3694    magn:   -0.0012    constr:    0.0000
     atom:   42    charge:    0.5669    magn:    0.0048    constr:    0.0000
     atom:   43    charge:    0.3702    magn:   -0.0012    constr:    0.0000
     atom:   44    charge:    0.5664    magn:    0.0048    constr:    0.0000
     atom:   45    charge:    0.3705    magn:   -0.0012    constr:    0.0000
     atom:   46    charge:    0.5665    magn:    0.0047    constr:    0.0000
     atom:   47    charge:    0.3686    magn:   -0.0008    constr:    0.0000
     atom:   48    charge:    0.5669    magn:    0.0047    constr:    0.0000
     atom:   49    charge:    0.3690    magn:   -0.0008    constr:    0.0000
     atom:   50    charge:    0.5745    magn:    0.0056    constr:    0.0000
     atom:   51    charge:    0.3690    magn:   -0.0015    constr:    0.0000
     atom:   52    charge:    0.5755    magn:    0.0043    constr:    0.0000
     atom:   53    charge:    0.5549    magn:   -0.0014    constr:    0.0000
     atom:   54    charge:    0.5560    magn:   -0.0015    constr:    0.0000

     End of self-consistent calculation

 ------ SPIN UP ------------

[...]

 ------ SPIN DOWN ----------

          k = 0.0000 0.0000 0.0000 ( 46676 PWs)   bands (ev):

   -22.6411 -22.6123 -22.4713 -22.4464 -19.6062 -19.5773 -19.5676 -19.5531
   -19.4362 -19.4001 -19.2599 -19.2391 -15.6191 -15.5220 -15.5092 -15.4835
   -14.3440 -14.3063 -14.2850 -14.2485 -11.9501 -11.7545 -11.7318 -11.7139
   -11.1930 -11.1742 -11.1466 -11.0827  -9.5386  -9.2292  -9.2075  -9.1649
    -8.4184  -7.8807  -7.8494  -7.7328  -7.7201  -7.6585  -7.6402  -7.5269
    -6.8787  -6.7615  -6.7287  -6.7115  -6.6488  -6.5995  -6.5339  -6.5311
    -6.4857  -6.4193  -6.3344  -6.2575  -6.2410  -6.1990  -6.0805  -5.9663
    -5.8911  -5.7270  -5.5688  -5.5390  -5.4830  -5.3309  -5.3044  -5.0016
    -4.7218  -4.2971  -4.2933  -4.2119  -4.1478  -4.1355  -3.8803  -3.7068
    -3.5985  -3.5148  -3.4199  -3.3246  -3.0340  -2.9355  -2.8840  -2.8815
    -2.8272  -2.5246  -2.4502  -2.4183  -2.3966  -2.3628  -2.2366  -2.1757
    -2.1577  -2.0996  -1.8910  -1.8296  -1.8036  -1.5383  -1.4947  -1.4811
    -1.4287  -1.3560   0.5311   0.5864   0.8086   0.8853   1.7661   1.8904
     1.9383   1.9865   3.0252   3.0514   3.2342   3.2812   3.5074   4.3074
     4.4055   4.4194   4.5428   4.6230   5.1513   5.3635   5.4953   5.6399
     5.6656   5.8631

     the spin up/dw Fermi energies are     0.1333   -0.3110 ev

!    total energy              =    -811.24850537 Ry
     Harris-Foulkes estimate   =    -811.24850537 Ry
     estimated scf accuracy    <          3.7E-09 Ry

     The total energy is the sum of the following terms:

     one-electron contribution =   -1268.55850032 Ry
     hartree contribution      =     703.65662635 Ry
     xc contribution           =    -246.74902425 Ry
     ewald contribution        =      -0.78095664 Ry
     Dispersion Correction     =      -0.20642606 Ry
     smearing contrib. (-TS)   =       1.38977555 Ry

     total magnetization       =     4.00 Bohr mag/cell
     absolute magnetization    =     4.15 Bohr mag/cell

     convergence has been achieved in  22 iterations

     Forces acting on atoms (cartesian axes, Ry/au):

     atom    1 type  1   force =    -0.00603692    0.00618257   -0.02982035
     atom    2 type  3   force =    -0.00052384   -0.00072187    0.00268945
     atom    3 type  3   force =    -0.00030338    0.00150543    0.00270985
     atom    4 type  3   force =     0.00388621   -0.00157727    0.00018304
     atom    5 type  3   force =    -0.00134482    0.00084768    0.00255947
     atom    6 type  4   force =     0.00035511   -0.00457124    0.00020503
     atom    7 type  4   force =     0.00135251    0.00482317   -0.00006431
     atom    8 type  5   force =     0.00112656    0.00026454    0.00149173
     atom    9 type  6   force =     0.00058364   -0.00029703    0.00154908
     atom   10 type  5   force =     0.00037359   -0.00015536    0.00182692
     atom   11 type  5   force =    -0.00056420   -0.00016470    0.00149598
     atom   12 type  6   force =     0.00031564   -0.00023001    0.00139340
     atom   13 type  5   force =     0.00085015    0.00037966    0.00145156
     atom   14 type  6   force =     0.00092064    0.00036193    0.00146654
     atom   15 type  5   force =     0.00069034    0.00107284    0.00122288
     atom   16 type  6   force =    -0.00144393   -0.00045526    0.00186969
     atom   17 type  5   force =    -0.00025820   -0.00106438    0.00144489
     atom   18 type  6   force =     0.00262484    0.00085734    0.00144125
     atom   19 type  5   force =     0.00057177   -0.00036937    0.00176631
     atom   20 type  6   force =    -0.00048563    0.00133881   -0.00021927
     atom   21 type  5   force =    -0.00033005   -0.00016176    0.00178252
     atom   22 type  6   force =     0.00163650   -0.00150044   -0.00025680
     atom   23 type  5   force =     0.00046779    0.00062016    0.00255242
     atom   24 type  6   force =     0.00047122    0.00017536    0.00126974
     atom   25 type  5   force =     0.00064402    0.00077894    0.00116178
     atom   26 type  5   force =    -0.00003580    0.00010042    0.00093241
     atom   27 type  5   force =    -0.00040953    0.00028317    0.00044576
     atom   28 type  2   force =    -0.01151107   -0.00898860   -0.03876832
     atom   29 type  3   force =    -0.00212547    0.00128195    0.00252632
     atom   30 type  3   force =     0.00065248   -0.00163848    0.00451789
     atom   31 type  3   force =     0.00305716    0.00078916    0.00228225
     atom   32 type  3   force =    -0.00323902   -0.00126494    0.00069679
     atom   33 type  4   force =    -0.00028046    0.00491297   -0.00015868
     atom   34 type  4   force =     0.00085564   -0.00473824   -0.00027189
     atom   35 type  5   force =     0.00087831    0.00002732    0.00145196
     atom   36 type  6   force =     0.00080662   -0.00006337    0.00151909
     atom   37 type  5   force =     0.00003018    0.00027411    0.00169301
     atom   38 type  5   force =     0.00001151    0.00024935    0.00174387
     atom   39 type  6   force =    -0.00000773    0.00018610    0.00149462
     atom   40 type  5   force =     0.00073698   -0.00036171    0.00105336
     atom   41 type  6   force =     0.00027707   -0.00009269    0.00162179
     atom   42 type  5   force =     0.00068968   -0.00087973    0.00091696
     atom   43 type  6   force =    -0.00149981    0.00070383    0.00165627
     atom   44 type  5   force =     0.00029045    0.00127358    0.00104394
     atom   45 type  6   force =     0.00187023   -0.00042959    0.00120691
     atom   46 type  5   force =     0.00069605    0.00090296    0.00218468
     atom   47 type  6   force =    -0.00047566   -0.00106800   -0.00018246
     atom   48 type  5   force =     0.00010730    0.00008030    0.00207699
     atom   49 type  6   force =     0.00162667    0.00152900   -0.00017045
     atom   50 type  5   force =     0.00048193   -0.00061288    0.00188933
     atom   51 type  6   force =     0.00037598    0.00006586    0.00170283
     atom   52 type  5   force =     0.00000078   -0.00015768    0.00118477
     atom   53 type  5   force =     0.00059988   -0.00015551    0.00007353
     atom   54 type  5   force =    -0.00003995   -0.00014838    0.00046364

     Total force =     0.054878     Total SCF correction =     0.000130

     Computing stress (Cartesian axis) and pressure

          total   stress  (Ry/bohr**3)                   (kbar)     P=       17.66
   0.00013845   0.00000804   0.00000604           20.37        1.18        0.89
   0.00000804   0.00011613   0.00000913            1.18       17.08        1.34
   0.00000604   0.00000913   0.00010567            0.89        1.34       15.55

     Writing output data file ./NiPyC2_P1_vc-relax.save/

     General routines

     Parallel routines

   This run was terminated on:  23:45: 8  29May2020

   JOB DONE.
QE finished Fri May 29 23:45:08 PDT 2020