     Program PWSCF v.6.5 starts on  8Jul2020 at 10:22:17

     K-points division:     npool     =       2
     R & G space division:  proc/nbgrp/npool/nimage =       8
     Reading input from ./QE_input_scripts/pw.NiPyC2_relax_sc211_meta_functionalized_CH-CH2_pbesol_relax_frozen_parent_atoms_Round2.in
Warning: card &CELL ignored
Warning: card    CELL_DYNAMICS = 'BFGS' ignored
Warning: card    CELL_DOFREE = 'XYZ' ignored
Warning: card / ignored

     Current dimensions of program PWSCF are:
     Max number of different atomic species (ntypx) = 10
     Max number of k-points (npk) =  40000
     Max angular momentum in pseudopotentials (lmaxx) =  3

     Parameters for Dispersion (Grimme-D2) Correction:
       atom      VdW radius       C_6

        C          2.744         60.710
        H          1.892          4.857
        N          2.640         42.670
        Ni         2.952        374.666
        O          2.536         24.284

     gamma-point specific algorithms are used

     Subspace diagonalization in iterative solution of the eigenvalue problem:
     a serial algorithm will be used

     bravais-lattice index     =            0
     lattice parameter (alat)  =      23.6322  a.u.
     unit-cell volume          =   10858.6596 (a.u.)^3
     number of atoms/cell      =          140
     number of atomic types    =            5
     number of electrons       =       480.00 (up: 244.00, down: 236.00)
     number of Kohn-Sham states=          293
     kinetic-energy cutoff     =     100.0000  Ry
     charge density cutoff     =     400.0000  Ry
     convergence threshold     =      1.0E-06
     mixing beta               =       0.7000
     number of iterations used =            8  local-TF  mixing
     Exchange-correlation= PBESOL
                           (   1   4  10   8   0   0   0)
     nstep                     =          200

     celldm(1)=  23.632191  celldm(2)=   0.000000  celldm(3)=   0.000000
     celldm(4)=   0.000000  celldm(5)=   0.000000  celldm(6)=   0.000000

     crystal axes: (cart. coord. in units of alat)
               a(1) = (   1.000000   0.000000   0.000000 )
               a(2) = (   0.000000   1.001423   0.000000 )
               a(3) = (  -0.018199   0.000000   0.821574 )

     reciprocal axes: (cart. coord. in units 2 pi/alat)
               b(1) = (  1.000000  0.000000  0.022151 )
               b(2) = (  0.000000  0.998579  0.000000 )
               b(3) = (  0.000000  0.000000  1.217176 )

     PseudoPot. # 1 for C  read from file:
     ./pseudo/C.pbesol-nc.UPF
     MD5 check sum: ce26087537ded160c8d400e183a8bf42
     Pseudo is Norm-conserving, Zval =  4.0
     Generated using "atomic" code by A. Dal Corso v.6.5
     Using radial grid of 1073 points,  1 beta functions with:
                l(1) =   1

     PseudoPot. # 2 for H  read from file:
     ./pseudo/H.pbesol-n-nc.UPF
     MD5 check sum: 7995ef24074557c85b430109caaacc09
     Pseudo is Norm-conserving, Zval =  1.0
     Generated using "atomic" code by A. Dal Corso v.6.5
     Using radial grid of  929 points,  0 beta functions with:

     PseudoPot. # 3 for N  read from file:
     ./pseudo/N.pbesol-nc.UPF
     MD5 check sum: e18cc5e4b8a5600c1a19b30c2cab1ca0
     Pseudo is Norm-conserving, Zval =  5.0
     Generated using "atomic" code by A. Dal Corso v.6.5
     Using radial grid of 1085 points,  1 beta functions with:
                l(1) =   1

     PseudoPot. # 4 for Ni read from file:
     ./pseudo/Ni.pbesol-n-nc.UPF
     MD5 check sum: 623411631e0c2eb7c0b2b9815547d2d9
     Pseudo is Norm-conserving + core correction, Zval = 10.0
     Generated using "atomic" code by A. Dal Corso v.6.5
     Using radial grid of 1195 points,  2 beta functions with:
                l(1) =   1
                l(2) =   2

     PseudoPot. # 5 for O  read from file:
     ./pseudo/O.pbesol-nc.UPF
     MD5 check sum: 73d10e7e91dbfcbe8a7e362101007f84
     Pseudo is Norm-conserving, Zval =  6.0
     Generated using "atomic" code by A. Dal Corso v.6.5
     Using radial grid of 1095 points,  1 beta functions with:
                l(1) =   1

     atomic species   valence    mass     pseudopotential
        C              4.00    12.01070     C ( 1.00)
        H              1.00     1.00794     H ( 1.00)
        N              5.00    14.00670     N ( 1.00)
        Ni            10.00    58.69340     Ni( 1.00)
        O              6.00    15.99940     O ( 1.00)

     Starting magnetic structure
     atomic species   magnetization
        C            0.000
        H            0.000
        N            0.000
        Ni           0.250
        O            0.000

     No symmetry found

   Cartesian axes

     site n.     atom                  positions (alat units)
         1           C   tau(   1) = (   0.2787124   0.9714303   0.4288485  )
         2           C   tau(   2) = (   0.0379730   0.0311503   0.0183277  )
         3           C   tau(   3) = (   0.3806884   0.0117867   0.4489836  )
         4           C   tau(   4) = (   0.1394042   0.9891495   0.0379124  )
         5           C   tau(   5) = (   0.4400789   0.9715826   0.5343279  )
         6           C   tau(   6) = (   0.1997921   0.0283933   0.1231482  )
         7           C   tau(   7) = (   0.1986013   0.5304577   0.4324634  )
         8           C   tau(   8) = (   0.4580372   0.4720798   0.0229252  )
         9           C   tau(   9) = (   0.2341005   0.6142037   0.4982312  )
        10           C   tau(  10) = (   0.4948423   0.3892301   0.0892369  )
        11           C   tau(  11) = (   0.2384983   0.8904713   0.4955759  )
        12           C   tau(  12) = (  -0.0008282   0.1123917   0.0856466  )
        13           C   tau(  13) = (   0.3947363   0.8906486   0.5977378  )
        14           C   tau(  14) = (   0.1557890   0.1097029   0.1871644  )
        15           C   tau(  15) = (   0.0756249   0.6098496   0.5975735  )
        16           C   tau(  16) = (   0.3367153   0.3921903   0.1884642  )
        17           C   tau(  17) = (   0.0350718   0.5258262   0.5351010  )
        18           C   tau(  18) = (   0.2948780   0.4753865   0.1254987  )
        19           C   tau(  19) = (   0.0981524   0.4849591   0.4519610  )
        20           C   tau(  20) = (   0.3569104   0.5163898   0.0416029  )
        21           C   tau(  21) = (   0.4248180   0.0994603   0.3833637  )
        22           C   tau(  22) = (   0.1639427   0.9010003   0.7933710  )
        23           C   tau(  23) = (   0.0588122   0.3950353   0.3866952  )
        24           C   tau(  24) = (   0.2984062   0.6050317   0.7961931  )
        25           C   tau(  25) = (   0.7787124   0.9714303   0.4288485  )
        26           C   tau(  26) = (   0.5379730   0.0311503   0.0183277  )
        27           C   tau(  27) = (   0.8806884   0.0117867   0.4489836  )
        28           C   tau(  28) = (   0.6394042   0.9891495   0.0379124  )
        29           C   tau(  29) = (   0.9400789   0.9715826   0.5343279  )
        30           C   tau(  30) = (   0.6997921   0.0283933   0.1231482  )
        31           C   tau(  31) = (   0.6986023   0.5304577   0.4324634  )
        32           C   tau(  32) = (   0.9580382   0.4720798   0.0229252  )
        33           C   tau(  33) = (   0.7341005   0.6142037   0.4982312  )
        34           C   tau(  34) = (   0.9948423   0.3892301   0.0892369  )
        35           C   tau(  35) = (   0.7384983   0.8904713   0.4955759  )
        36           C   tau(  36) = (   0.4991718   0.1123917   0.0856466  )
        37           C   tau(  37) = (   0.8947363   0.8906486   0.5977378  )
        38           C   tau(  38) = (   0.6557880   0.1097029   0.1871644  )
        39           C   tau(  39) = (   0.5756249   0.6098496   0.5975735  )
        40           C   tau(  40) = (   0.8367153   0.3921903   0.1884642  )
        41           C   tau(  41) = (   0.5350718   0.5258262   0.5351010  )
        42           C   tau(  42) = (   0.7948780   0.4753865   0.1254987  )
        43           C   tau(  43) = (   0.5981524   0.4849591   0.4519610  )
        44           C   tau(  44) = (   0.8569104   0.5163898   0.0416029  )
        45           C   tau(  45) = (   0.9248180   0.0994603   0.3833637  )
        46           C   tau(  46) = (   0.6639427   0.9010003   0.7933710  )
        47           C   tau(  47) = (   0.5588112   0.3950353   0.3866952  )
        48           C   tau(  48) = (   0.7984062   0.6050317   0.7961931  )
        49           C   tau(  49) = (   0.5342733   0.0146578   0.5688891  )
        50           C   tau(  50) = (   0.6097352   0.0756475   0.6074447  )
        51           C   tau(  51) = (   0.2935648   0.9742153   0.1485315  )
        52           C   tau(  52) = (   0.3187680   0.8715865   0.0960190  )
        53           C   tau(  53) = (   0.9571779   0.4478283   0.5742326  )
        54           C   tau(  54) = (   0.8554043   0.4538569   0.6122715  )
        55           C   tau(  55) = (   0.5285500   0.5128768   0.7865881  )
        56           C   tau(  56) = (   0.6039917   0.4466717   0.7418173  )
        57           C   tau(  57) = (   0.7285205   0.9622603   0.3279042  )
        58           C   tau(  58) = (   0.6264782   0.9261720   0.3089989  )
        59           C   tau(  59) = (   0.4337408   0.9986250   0.7745430  )
        60           C   tau(  60) = (   0.3585702   0.0640730   0.7310949  )
[...]
       126           O   tau( 126) = (   0.3551693   0.6519033   0.7240466  )
       127           O   tau( 127) = (   0.3707657   0.1477169   0.3098796  )
       128           O   tau( 128) = (   0.1091509   0.8535649   0.7199133  )
       129           O   tau( 129) = (   0.4642790   0.3566668   0.3968153  )
       130           O   tau( 130) = (   0.2033042   0.6423277   0.8050415  )
       131           O   tau( 131) = (   0.0200849   0.1353503   0.3952412  )
       132           O   tau( 132) = (   0.2588619   0.8639857   0.8046488  )
       133           O   tau( 133) = (   0.6158111   0.3481837   0.3145585  )
       134           O   tau( 134) = (   0.8551693   0.6519033   0.7240466  )
       135           O   tau( 135) = (   0.8707657   0.1477169   0.3098796  )
       136           O   tau( 136) = (   0.6091509   0.8535649   0.7199133  )
       137           O   tau( 137) = (   0.9642790   0.3566668   0.3968153  )
       138           O   tau( 138) = (   0.7033042   0.6423277   0.8050415  )
       139           O   tau( 139) = (   0.5200849   0.1353503   0.3952412  )
       140           O   tau( 140) = (   0.7588619   0.8639857   0.8046488  )

     number of k points=     1  Marzari-Vanderbilt smearing, width (Ry)=  0.2000
                       cart. coord. in units 2pi/alat
        k(    1) = (   0.0000000   0.0000000   0.0000000), wk =   1.0000000

     Check: negative core charge=   -0.000145

     Initial potential from superposition of free atoms

     starting charge  479.99586, renormalised to  480.00000
     Starting wfcs are  436 randomized atomic wfcs

     Self-consistent Calculation

     iteration #  1     ecut=   100.00 Ry     beta= 0.70
     Davidson diagonalization with overlap
     ethr =  1.00E-02,  avg # of iterations =  3.5

[...]
     atom:   55    charge:    0.6804    magn:    0.0051    constr:    0.0000
     atom:   56    charge:    0.6099    magn:    0.0109    constr:    0.0000
     atom:   57    charge:    0.7863    magn:    0.0039    constr:    0.0000
     atom:   58    charge:    0.7608    magn:    0.0108    constr:    0.0000
     atom:   59    charge:    0.7838    magn:    0.0039    constr:    0.0000
     atom:   60    charge:    0.7170    magn:    0.0094    constr:    0.0000
[...]
     atom:  126    charge:    1.4479    magn:    0.0248    constr:    0.0000
     atom:  127    charge:    1.9265    magn:    0.0193    constr:    0.0000
     atom:  128    charge:    1.8825    magn:    0.0204    constr:    0.0000
     atom:  129    charge:    1.8482    magn:    0.0296    constr:    0.0000
     atom:  130    charge:    1.9834    magn:    0.0327    constr:    0.0000
     atom:  131    charge:    1.8790    magn:    0.0316    constr:    0.0000
     atom:  132    charge:    1.3705    magn:    0.0085    constr:    0.0000
     atom:  133    charge:    1.9414    magn:    0.0295    constr:    0.0000
     atom:  134    charge:    1.1352    magn:    0.0229    constr:    0.0000
     atom:  135    charge:    1.8867    magn:    0.0321    constr:    0.0000
     atom:  136    charge:    1.5985    magn:    0.0308    constr:    0.0000
     atom:  137    charge:    1.9748    magn:    0.0327    constr:    0.0000
     atom:  138    charge:    1.2852    magn:    0.0254    constr:    0.0000
     atom:  139    charge:    2.0633    magn:    0.0088    constr:    0.0000
     atom:  140    charge:    1.5531    magn:    0.0297    constr:    0.0000

     End of self-consistent calculation

 ------ SPIN UP ------------

[...]

 ------ SPIN DOWN ----------

          k = 0.0000 0.0000 0.0000 ( 91663 PWs)   bands (ev):

   -21.8938 -21.8194 -21.1295 -21.1128 -21.0576 -21.0084 -20.9700 -20.8706
   -19.4552 -19.2764 -18.1414 -18.1147 -18.0708 -18.0421 -18.0199 -18.0069
   -17.9928 -17.9674 -17.9590 -17.9250 -17.8818 -17.8618 -17.8483 -17.8029
   -15.0397 -14.8247 -14.6453 -14.6183 -14.5676 -14.5261 -14.4948 -14.4567
   -13.7770 -13.6398 -13.5672 -13.5070 -13.4845 -13.4248 -13.3836 -13.2802
   -12.8302 -12.7588 -12.2319 -12.1048 -12.0844 -12.0109 -11.9823 -11.9518
   -10.9700 -10.8391 -10.6711 -10.4818 -10.4365 -10.3724 -10.3089 -10.2940
   -10.2424 -10.1944 -10.0594  -9.9757  -9.9669  -9.9541  -9.8688  -9.8244
    -9.3333  -9.1404  -8.4927  -8.2202  -8.1838  -8.1140  -8.0890  -8.0475
    -8.0094  -7.9336  -7.7683  -7.7641  -7.7211  -7.6536  -7.6140  -7.5065
    -7.3761  -7.2175  -6.9276  -6.8042  -6.6545  -6.5342  -6.4839  -6.4546
    -6.4128  -6.4110  -6.3904  -6.3275  -6.2761  -6.2384  -6.1211  -6.0495
    -6.0021  -5.9086  -5.8170  -5.7132  -5.6939  -5.6498  -5.5788  -5.5601
    -5.5394  -5.4677  -5.4511  -5.4117  -5.3776  -5.3765  -5.2988  -5.2606
    -5.2131  -5.1946  -5.1267  -5.0999  -5.0778  -5.0376  -4.9894  -4.9490
    -4.9182  -4.9026  -4.8909  -4.8505  -4.8426  -4.7803  -4.7301  -4.7072
    -4.6657  -4.6590  -4.5954  -4.5428  -4.5175  -4.5013  -4.4713  -4.4089
    -4.3727  -4.3560  -4.2853  -4.2314  -4.2143  -4.1678  -4.1120  -4.0693
    -4.0008  -3.9809  -3.9288  -3.9175  -3.8729  -3.7998  -3.7810  -3.7642
    -3.7427  -3.6567  -3.2697  -3.1549  -3.1087  -2.9767  -2.9593  -2.9397
    -2.8490  -2.8128  -2.7890  -2.7739  -2.7381  -2.6648  -2.6165  -2.5971
    -2.5797  -2.5652  -2.5040  -2.4488  -2.4235  -2.3314  -2.3180  -2.2619
    -2.2400  -2.1611  -2.1431  -2.0806  -2.0316  -1.9718  -1.9136  -1.8938
    -1.8193  -1.8183  -1.7688  -1.7021  -1.6637  -1.6006  -1.5892  -1.4877
    -1.4463  -1.3855  -1.3738  -1.3263  -1.3132  -1.2302  -1.2093  -1.1712
    -1.1211  -1.0789  -1.0681  -0.9985  -0.9810  -0.9403  -0.8940  -0.8640
    -0.8394  -0.7727  -0.7486  -0.7240  -0.6651  -0.6022  -0.5565  -0.4301
    -0.1378  -0.1019   0.0567   0.0899   0.0980   0.1455   0.1678   0.1744
     0.1776   0.2083   0.2699   0.3340   0.4000   0.4379   0.4998   0.5509
     0.6357   0.7788   1.1616   1.5262   1.6292   1.6646   1.8532   1.9048
     2.0391   2.0801   2.1369   2.2372   2.9807   3.0852   3.2079   3.2453
     3.2621   3.2925   3.3268   3.3842   3.6918   3.8249   3.8865   3.9958
     4.2339   4.3759   4.5676   4.9454   4.9565   5.2263   5.3133   5.4432
     5.5248   5.5441   5.5996   5.6833   5.7159   5.7795   5.8492   5.8623
     5.8965   5.9144   5.9705   6.0871   6.1139   6.1512   6.2978   6.3811
     6.5495   6.6550   6.7793   6.7930   6.8861   6.9695   7.1091   7.2839
     7.4310   7.5229   7.5845   7.6808   7.7636

     the spin up/dw Fermi energies are     1.6827    1.3548 ev

!    total energy              =   -1822.61398276 Ry
     Harris-Foulkes estimate   =   -1822.61398277 Ry
     estimated scf accuracy    <          2.1E-09 Ry

     The total energy is the sum of the following terms:

     one-electron contribution =   -2291.21562555 Ry
     hartree contribution      =    1330.59772573 Ry
     xc contribution           =    -560.26169467 Ry
     ewald contribution        =    -304.10736349 Ry
     Dispersion Correction     =      -0.72071580 Ry
     smearing contrib. (-TS)   =       3.09369101 Ry

     total magnetization       =     8.00 Bohr mag/cell
     absolute magnetization    =     8.23 Bohr mag/cell

     convergence has been achieved in  13 iterations

     Forces acting on atoms (cartesian axes, Ry/au):

     atom    1 type  1   force =    -0.00014179   -0.00069930   -0.00020929
     atom    2 type  1   force =    -0.00026299   -0.00033235   -0.00074461
     atom    3 type  1   force =    -0.00059047    0.00032865    0.00043938
     atom    4 type  1   force =    -0.00032689    0.00006100   -0.00014305
     atom    5 type  1   force =    -0.00065655    0.00034604    0.00011966
     atom    6 type  1   force =    -0.00007449    0.00044071   -0.00072636
     atom    7 type  1   force =    -0.00005521    0.00010431    0.00026309
     atom    8 type  1   force =    -0.00002792   -0.00052896   -0.00020185
     atom    9 type  1   force =    -0.00034491   -0.00012711    0.00008691
     atom   10 type  1   force =     0.00028076   -0.00030823    0.00011843
     atom   11 type  1   force =     0.00044184   -0.00074414    0.00066173
     atom   12 type  1   force =     0.00008095    0.00045541    0.00022850
     atom   13 type  1   force =     0.00010476   -0.00055959   -0.00052615
     atom   14 type  1   force =    -0.00032967   -0.00011803    0.00037213
     atom   15 type  1   force =     0.00066388    0.00029937    0.00051128
     atom   16 type  1   force =    -0.00002969   -0.00017299   -0.00051246
     atom   17 type  1   force =    -0.00013854    0.00048133   -0.00020510
     atom   18 type  1   force =     0.00008092   -0.00055388    0.00014740
     atom   19 type  1   force =     0.00033813   -0.00018789    0.00003151
     atom   20 type  1   force =     0.00030717    0.00009375    0.00009968
     atom   21 type  1   force =     0.00043055    0.00003989   -0.00088714
     atom   22 type  1   force =    -0.00028339    0.00028748   -0.00028202
     atom   23 type  1   force =    -0.00050798    0.00044429   -0.00020253
     atom   24 type  1   force =     0.00000255   -0.00006287   -0.00022039
     atom   25 type  1   force =    -0.00034646    0.00022982   -0.00021257
     atom   26 type  1   force =    -0.00041347   -0.00018324    0.00008071
     atom   27 type  1   force =     0.00024569   -0.00050018   -0.00008964
     atom   28 type  1   force =    -0.00023911    0.00003708    0.00024563
     atom   29 type  1   force =    -0.00009817   -0.00012159    0.00017275
     atom   30 type  1   force =     0.00004200    0.00009418   -0.00029516
     atom   31 type  1   force =    -0.00037043    0.00008544    0.00023369
     atom   32 type  1   force =     0.00043489   -0.00019457    0.00018385
     atom   33 type  1   force =     0.00057263    0.00014231    0.00004681
     atom   34 type  1   force =     0.00015705    0.00022997   -0.00022124
     atom   35 type  1   force =    -0.00028740   -0.00016195   -0.00015744
     atom   36 type  1   force =    -0.00033065   -0.00000956    0.00017224
     atom   37 type  1   force =    -0.00035049   -0.00024153    0.00023015
     atom   38 type  1   force =     0.00045015    0.00049538    0.00018123
     atom   39 type  1   force =     0.00001208    0.00011818    0.00029184
     atom   40 type  1   force =    -0.00019023    0.00001441   -0.00013065
     atom   41 type  1   force =    -0.00002588    0.00009596    0.00007224
     atom   42 type  1   force =     0.00023089   -0.00036207    0.00029870
     atom   43 type  1   force =     0.00029842   -0.00056498    0.00058449
     atom   44 type  1   force =     0.00028035    0.00012898    0.00030129
     atom   45 type  1   force =    -0.00044701    0.00015031    0.00045778
     atom   46 type  1   force =    -0.00033302    0.00064879    0.00012423
     atom   47 type  1   force =    -0.00022205    0.00054687   -0.00015451
     atom   48 type  1   force =    -0.00016914   -0.00063361   -0.00062206
     atom   49 type  1   force =    -0.00009494    0.00012577   -0.00025383
     atom   50 type  1   force =    -0.00001955    0.00062367   -0.00041537
     atom   51 type  1   force =     0.00068698    0.00020607   -0.00023795
     atom   52 type  1   force =     0.00030395   -0.00012911    0.00006063
     atom   53 type  1   force =    -0.00062897   -0.00017276   -0.00015891
     atom   54 type  1   force =     0.00022536    0.00062198   -0.00001069
     atom   55 type  1   force =     0.00037954    0.00036932   -0.00059543
     atom   56 type  1   force =     0.00001356   -0.00011223    0.00050334
     atom   57 type  1   force =    -0.00005146    0.00008223   -0.00020360
     atom   58 type  1   force =    -0.00004187   -0.00026513   -0.00021833
     atom   59 type  1   force =    -0.00015201    0.00046778   -0.00041425
     atom   60 type  1   force =     0.00042441   -0.00033366   -0.00006087
[...]
     atom  126 type  5   force =    -0.00019927    0.00063040    0.00031869
     atom  127 type  5   force =    -0.00000261   -0.00038896   -0.00031672
     atom  128 type  5   force =    -0.00002050    0.00004326   -0.00030334
     atom  129 type  5   force =    -0.00018614   -0.00000850    0.00000886
     atom  130 type  5   force =    -0.00000501    0.00003696   -0.00008081
     atom  131 type  5   force =    -0.00021842    0.00042972   -0.00041516
     atom  132 type  5   force =    -0.00061633    0.00024501    0.00025380
     atom  133 type  5   force =     0.00033545   -0.00023614    0.00049384
     atom  134 type  5   force =    -0.00011638    0.00001960    0.00059843
     atom  135 type  5   force =    -0.00006529   -0.00054295    0.00031135
     atom  136 type  5   force =    -0.00010204    0.00012029    0.00039280
     atom  137 type  5   force =     0.00020309   -0.00053804    0.00029458
     atom  138 type  5   force =     0.00003410    0.00049943   -0.00033797
     atom  139 type  5   force =     0.00037520    0.00016634   -0.00002642
     atom  140 type  5   force =    -0.00001725   -0.00023745   -0.00080363

     Total force =     0.007023     Total SCF correction =     0.000105

     bfgs converged in  74 scf cycles and  73 bfgs steps
     (criteria: energy <  1.0E-04 Ry, force <  1.0E-03 Ry/Bohr)

     End of BFGS Geometry Optimization

     Final energy   =   -1822.6139827592 Ry
Begin final coordinates

ATOMIC_POSITIONS (crystal)
C             0.2879210122        0.9877793048        0.5415383544
C             0.0324709950        0.0225914369        0.0258049455
C             0.3961824446        0.0142424311        0.5498207162
C             0.1316320280        0.9774021707        0.0568788837
C             0.4636479863        0.9533008398        0.6372911303
C             0.1907130467        0.0169968143        0.1666122102
C             0.2123472511        0.5220338455        0.5063644573
C             0.4670593291        0.4868100923        0.0495943815
C             0.2425992410        0.6105421610        0.5822408744
C             0.4890037188        0.3936188138        0.1226740716
C             0.2480257718        0.9036634198        0.6151356388
C            -0.0064703611        0.1042360671        0.1048651970
C             0.4181321468        0.8609263852        0.6974878899
C             0.1471775016        0.1029808041        0.2381798369
C             0.0861607273        0.6018356600        0.7006442607
C             0.3221958496        0.3951067965        0.2176538497
C             0.0562106135        0.5039347465        0.6400607431
C             0.2916365957        0.4846354306        0.1434845789
C             0.1179309489        0.4686267176        0.5346737398
C             0.3640063357        0.5329061849        0.0596234496
C             0.4369311831        0.1033780386        0.4746862480
C             0.1797501869        0.8927516569        0.9810281305
C             0.0742611882        0.3799003566        0.4571596360
C             0.3267731132        0.6212688538        0.9763313491
C             0.7893692741        0.9380134409        0.5074054879
C             0.5161020719        0.0360806117        0.0226701913
C             0.8842307053       -0.0040716216        0.5392771504
C             0.6234017417        0.9982632702        0.0307597465
C             0.9434701108        0.9669575010        0.6506752183
C             0.6948997249        0.0554495492        0.1105758381
C             0.7210624641        0.5275263061        0.5247340864
C             0.9694510329        0.4749581911        0.0531082537
C             0.7510702347        0.6103698268        0.6100226525
C             0.9909790491        0.3810476539        0.1263450591
C             0.7563312677        0.8600222079        0.5981203828
C             0.4855682419        0.1167961207        0.1113309279
C             0.9056983649        0.8872303974        0.7331539067
C             0.6584507754        0.1361395464        0.1932709070
C             0.5893663258        0.6017006464        0.7166098485
C             0.8302936426        0.3922655071        0.2324576000
C             0.5600164152        0.5069820587        0.6482719029
C             0.8010236825        0.4843367087        0.1619622897
C             0.6239601347        0.4758655749        0.5431284360
C             0.8711700777        0.5291276384        0.0728581892
C             0.9226098386        0.0874377837        0.4630892166
C             0.6661631631        0.9044235233        0.9601382335
C             0.5787866101        0.3935366436        0.4572340132
C             0.8352748917        0.6238421606        0.9970768233
C             0.5614273513       -0.0105246045        0.6783735098
C             0.6383929006        0.0477613955        0.7289159347
C             0.2848236802        0.9683412504        0.2078760585
C             0.3239440124        0.8740422921        0.1415419632
C             0.9753373459        0.4367795243        0.6927583192
C             0.8884008234        0.4707444219        0.7595786086
C             0.5552707164        0.5279091573        0.9807264982
C             0.6330889784        0.4629686066        0.9313268962
C             0.7280182155        0.9528990221        0.3907078460
C             0.6287339050        0.9110285362        0.3642400007
C             0.4372016691        0.9990105185        0.9318104385
C             0.3505304637        0.0572991581        0.8900712881
[...]
O             0.3848908039        0.6731985519        0.8957803779
O             0.3816951692        0.1544506323        0.3915266601
O             0.1409909074        0.8538181514        0.8774930099
O             0.4797998215        0.3648806529        0.4678946241
O             0.2274147297        0.6484659185        0.9711745514
O             0.0180067737        0.1240081514        0.4786147248
O             0.2754900922        0.8534563918        1.0160918537
O             0.6279761748        0.3445867626        0.3668324037
O             0.8896260884        0.6727849118        0.9105953189
O             0.8648643340        0.1392860600        0.3787770359
O             0.6102269817        0.8379029757        0.8913150314
O             0.9753058578        0.3515999874        0.4695247451
O             0.7389253012        0.6593126651        1.0055965267
O             0.5383229040        0.1357182905        0.4844464306
O             0.7663959374        0.8830015638        0.9657812472
End final coordinates

     Writing output data file /nfs/hpc/share/gantzlen/NiPyC2_relax_sc211_meta_functionalized_CH-CH2_pbesol_relax_frozen_parent_atoms_Round2.save/

     General routines

     Parallel routines

   This run was terminated on:   8:41: 2   9Jul2020

   JOB DONE.
QE finished Thu Jul 9 08:41:02 PDT 2020