     Program PWSCF v.6.5 starts on  8Jun2020 at 19:29:13

     K-points division:     npool     =       2
     R & G space division:  proc/nbgrp/npool/nimage =       8
     Reading input from QE_input_scripts/pw.NiPyC2_pbesol-vc-relax.in

     Current dimensions of program PWSCF are:
     Max number of different atomic species (ntypx) = 10
     Max number of k-points (npk) =  40000
     Max angular momentum in pseudopotentials (lmaxx) =  3

     Parameters for Dispersion (Grimme-D2) Correction:
       atom      VdW radius       C_6

        C          2.744         60.710
        H          1.892          4.857
        N          2.640         42.670
        Ni         2.952        374.666
        O          2.536         24.284

     gamma-point specific algorithms are used

     Subspace diagonalization in iterative solution of the eigenvalue problem:
     a serial algorithm will be used

     Message from routine setup:
     using ibrav=0 with symmetry is DISCOURAGED, use correct ibrav instead

     bravais-lattice index     =            0
     lattice parameter (alat)  =      11.8161  a.u.
     unit-cell volume          =    5429.3114 (a.u.)^3
     number of atoms/cell      =           54
     number of atomic types    =            5
     number of electrons       =       200.00 (up: 102.00, down:  98.00)
     number of Kohn-Sham states=          122
     kinetic-energy cutoff     =     100.0000  Ry
     charge density cutoff     =     400.0000  Ry
     convergence threshold     =      1.0E-06
     mixing beta               =       0.7000
     number of iterations used =            8  local-TF  mixing
     Exchange-correlation= PBESOL
                           (   1   4  10   8   0   0   0)
     nstep                     =          200

     celldm(1)=  11.816080  celldm(2)=   0.000000  celldm(3)=   0.000000
     celldm(4)=   0.000000  celldm(5)=   0.000000  celldm(6)=   0.000000

     crystal axes: (cart. coord. in units of alat)
               a(1) = (   1.000000   0.000000   0.000000 )
               a(2) = (   0.000000   2.002847   0.000000 )
               a(3) = (  -0.036399   0.000000   1.643149 )

     reciprocal axes: (cart. coord. in units 2 pi/alat)
               b(1) = (  1.000000  0.000000  0.022152 )
               b(2) = (  0.000000  0.499289  0.000000 )
               b(3) = (  0.000000  0.000000  0.608588 )

     PseudoPot. # 1 for C  read from file:
     ./pseudo/C.pbesol-nc.UPF
     MD5 check sum: ce26087537ded160c8d400e183a8bf42
     Pseudo is Norm-conserving, Zval =  4.0
     Generated using "atomic" code by A. Dal Corso v.6.5
     Using radial grid of 1073 points,  1 beta functions with:
                l(1) =   1

     PseudoPot. # 2 for H  read from file:
     ./pseudo/H.pbesol-n-nc.UPF
     MD5 check sum: 7995ef24074557c85b430109caaacc09
     Pseudo is Norm-conserving, Zval =  1.0
     Generated using "atomic" code by A. Dal Corso v.6.5
     Using radial grid of  929 points,  0 beta functions with:

     PseudoPot. # 3 for N  read from file:
     ./pseudo/N.pbesol-nc.UPF
     MD5 check sum: e18cc5e4b8a5600c1a19b30c2cab1ca0
     Pseudo is Norm-conserving, Zval =  5.0
     Generated using "atomic" code by A. Dal Corso v.6.5
     Using radial grid of 1085 points,  1 beta functions with:
                l(1) =   1

     PseudoPot. # 4 for Ni read from file:
     ./pseudo/Ni.pbesol-n-nc.UPF
     MD5 check sum: 623411631e0c2eb7c0b2b9815547d2d9
     Pseudo is Norm-conserving + core correction, Zval = 10.0
     Generated using "atomic" code by A. Dal Corso v.6.5
     Using radial grid of 1195 points,  2 beta functions with:
                l(1) =   1
                l(2) =   2

     PseudoPot. # 5 for O  read from file:
     ./pseudo/O.pbesol-nc.UPF
     MD5 check sum: 73d10e7e91dbfcbe8a7e362101007f84
     Pseudo is Norm-conserving, Zval =  6.0
     Generated using "atomic" code by A. Dal Corso v.6.5
     Using radial grid of 1095 points,  1 beta functions with:
                l(1) =   1

     atomic species   valence    mass     pseudopotential
        C              4.00    12.01070     C ( 1.00)
        H              1.00     1.00794     H ( 1.00)
        N              5.00    14.00670     N ( 1.00)
        Ni            10.00    58.69340     Ni( 1.00)
        O              6.00    15.99940     O ( 1.00)

     Starting magnetic structure
     atomic species   magnetization
        C            0.000
        H            0.000
        N            0.000
        Ni           0.250
        O            0.000

      2 Sym. Ops. (no inversion) found ( 1 have fractional translation)

   Cartesian axes

     site n.     atom                  positions (alat units)
         1           C   tau(   1) = (   0.5691129   1.9213309   0.8435924  )
         2           C   tau(   2) = (   0.7737740   1.9988410   0.8769484  )
         3           C   tau(   3) = (   0.8939722   1.9119175   1.0440566  )
         4           C   tau(   4) = (   0.3878954   1.0396777   0.8940371  )
         5           C   tau(   5) = (   0.4576709   1.2081171   1.0215454  )
         6           C   tau(   6) = (   0.4898428   1.7643077   0.9776734  )
         7           C   tau(   7) = (   0.8025222   1.7578986   1.1727151  )
         8           C   tau(   8) = (   0.1377615   1.2107208   1.2070569  )
         9           C   tau(   9) = (   0.0584822   1.0420812   1.0887502  )
        10           C   tau(  10) = (   0.1873493   0.9553579   0.9277216  )
        11           C   tau(  11) = (   0.8614386   0.1788542   0.7476326  )
        12           C   tau(  12) = (   0.1044740   0.7734994   0.7911760  )
        13           C   tau(  13) = (   0.0873123   0.0815159   0.0220182  )
        14           C   tau(  14) = (   0.2919734   0.0040057   0.0553741  )
        15           C   tau(  15) = (   0.4121716   0.0909292   0.2224823  )
        16           C   tau(  16) = (   0.9060948   0.9631690   0.0724628  )
        17           C   tau(  17) = (   0.9758703   0.7947296   0.1999712  )
        18           C   tau(  18) = (   0.0080421   0.2385390   0.1560991  )
        19           C   tau(  19) = (   0.3207216   0.2449482   0.3511408  )
        20           C   tau(  20) = (   0.6559609   0.7921259   0.3854826  )
        21           C   tau(  21) = (   0.5766816   0.9607656   0.2671759  )
        22           C   tau(  22) = (   0.7055486   1.0474888   0.1061474  )
        23           C   tau(  23) = (   0.3432392   1.8239925   1.5692068  )
        24           C   tau(  24) = (   0.5862746   1.2293473   1.6127503  )
        25           H   tau(  25) = (   0.4840353   1.9752074   0.7297223  )
        26           H   tau(  26) = (   0.0365226   1.9583835   1.0688681  )
        27           H   tau(  27) = (   0.4777087   0.9833977   0.7850964  )
        28           H   tau(  28) = (   0.5969732   1.2643971   0.9988700  )
        29           H   tau(  29) = (   0.3510215   1.7084283   0.9515473  )
        30           H   tau(  30) = (   0.8848144   1.6990149   1.2859280  )
        31           H   tau(  31) = (   0.0501555   1.2710065   1.3156690  )
        32           H   tau(  32) = (   0.9198816   0.9864020   1.1158622  )
        33           H   tau(  33) = (  -0.0341640   0.0276393   1.5512965  )
        34           H   tau(  34) = (   0.5547220   0.0444632   0.2472939  )
        35           H   tau(  35) = (   0.9595093   1.0194490   1.6066706  )
        36           H   tau(  36) = (   0.1151726   0.7384496   0.1772957  )
        37           H   tau(  37) = (   0.8692209   0.2944185   0.1299730  )
        38           H   tau(  38) = (   0.4030137   0.3038318   0.4643538  )
        39           H   tau(  39) = (   0.5683549   0.7318402   0.4940948  )
        40           H   tau(  40) = (   0.4380810   1.0164447   0.2942879  )
        41           N   tau(  41) = (   0.6025592   1.6881995   1.1439600  )
        42           N   tau(  42) = (   0.3350713   1.2940393   1.1750155  )
        43           N   tau(  43) = (   0.1207586   0.3146472   0.3223857  )
        44           N   tau(  44) = (   0.8532706   0.7088075   0.3534412  )
        45           Ni  tau(  45) = (   0.4642458   1.5100663   1.3793082  )
        46           Ni  tau(  46) = (   0.9824452   0.4927804   0.5577339  )
        47           O   tau(  47) = (   0.2269989   0.7002353   0.6455930  )
        48           O   tau(  48) = (   0.7414252   0.2665388   0.6082936  )
        49           O   tau(  49) = (   0.9187989   0.7054627   0.8171378  )
        50           O   tau(  50) = (   0.0492397   0.2399410   0.7791810  )
        51           O   tau(  51) = (   0.7087996   1.3026115   1.4671673  )
        52           O   tau(  52) = (   0.2232258   1.7363079   1.4298678  )
        53           O   tau(  53) = (   0.4005995   1.2973840   1.6387120  )
        54           O   tau(  54) = (   0.5310404   1.7629057   1.6007553  )

     number of k points=     1  Marzari-Vanderbilt smearing, width (Ry)=  0.2000
                       cart. coord. in units 2pi/alat
        k(    1) = (   0.0000000   0.0000000   0.0000000), wk =   1.0000000

     Check: negative core charge=   -0.000145

     Initial potential from superposition of free atoms

     starting charge  199.99835, renormalised to  200.00000
     Starting wfcs are  178 randomized atomic wfcs

     Self-consistent Calculation

     iteration #  1     ecut=   100.00 Ry     beta= 0.70
     Davidson diagonalization with overlap
     ethr =  1.00E-02,  avg # of iterations =  4.0

     total energy              =    -808.50725247 Ry
     Harris-Foulkes estimate   =    -813.53932633 Ry
     estimated scf accuracy    <      13.16674673 Ry

     total magnetization       =     4.00 Bohr mag/cell
     absolute magnetization    =     4.57 Bohr mag/cell

[...]

     Magnetic moment per site:
     atom:    1    charge:    0.5996    magn:    0.0036    constr:    0.0000
     atom:    2    charge:    0.5739    magn:    0.0039    constr:    0.0000
     atom:    3    charge:    0.5986    magn:    0.0038    constr:    0.0000
     atom:    4    charge:    0.5997    magn:    0.0036    constr:    0.0000
     atom:    5    charge:    0.5922    magn:    0.0032    constr:    0.0000
     atom:    6    charge:    0.5928    magn:    0.0033    constr:    0.0000
     atom:    7    charge:    0.5943    magn:    0.0032    constr:    0.0000
     atom:    8    charge:    0.5913    magn:    0.0033    constr:    0.0000
     atom:    9    charge:    0.5983    magn:    0.0036    constr:    0.0000
     atom:   10    charge:    0.5741    magn:    0.0038    constr:    0.0000
     atom:   11    charge:    0.5593    magn:   -0.0013    constr:    0.0000
     atom:   12    charge:    0.5593    magn:   -0.0012    constr:    0.0000
     atom:   13    charge:    0.5996    magn:    0.0036    constr:    0.0000
     atom:   14    charge:    0.5739    magn:    0.0039    constr:    0.0000
     atom:   15    charge:    0.5986    magn:    0.0038    constr:    0.0000
     atom:   16    charge:    0.5997    magn:    0.0036    constr:    0.0000
     atom:   17    charge:    0.5922    magn:    0.0032    constr:    0.0000
     atom:   18    charge:    0.5928    magn:    0.0033    constr:    0.0000
[...]
        O              6.00    15.99940     O ( 1.00)

     Starting magnetic structure
     atomic species   magnetization
        C            0.008
        H           -0.002
        N            0.007
        Ni           0.139
        O            0.022

      2 Sym. Ops. (no inversion) found ( 1 have fractional translation)

   Cartesian axes

     site n.     atom                  positions (alat units)
         1           C   tau(   1) = (   0.6095476   1.6921017   0.9558136  )
         2           C   tau(   2) = (   0.8288116   1.7364568   0.9679201  )
         3           C   tau(   3) = (   0.9512879   1.6543184   1.1360016  )
         4           C   tau(   4) = (   0.4308816   0.8950802   0.9688591  )
         5           C   tau(   5) = (   0.5174728   1.0297691   1.1240757  )
         6           C   tau(   6) = (   0.5177963   1.5653201   1.1148826  )
         7           C   tau(   7) = (   0.8490926   1.5282128   1.2892393  )
         8           C   tau(   8) = (   0.1816316   1.0691664   1.2895878  )
         9           C   tau(   9) = (   0.0844203   0.9355399   1.1395543  )
        10           C   tau(  10) = (   0.2121084   0.8483404   0.9781162  )
        11           C   tau(  11) = (   0.9273490   0.1490076   0.8119138  )
        12           C   tau(  12) = (   0.1204856   0.7003940   0.8228901  )
        13           C   tau(  13) = (   0.0848847   0.0383823   0.0625408  )
        14           C   tau(  14) = (   0.3041487  -0.0059728   0.0746472  )
        15           C   tau(  15) = (   0.4266250   0.0761655   0.2427288  )
        16           C   tau(  16) = (   0.9919432   0.8354038   0.0755863  )
        17           C   tau(  17) = (   1.0785345   0.7007148   0.2308029  )
        18           C   tau(  18) = (  -0.0068666   0.1651638   0.2216097  )
        19           C   tau(  19) = (   0.3244297   0.2022711   0.3959664  )
        20           C   tau(  20) = (   0.7426932   0.6613175   0.3963149  )
        21           C   tau(  21) = (   0.6454819   0.7949440   0.2462814  )
        22           C   tau(  22) = (   0.7731700   0.8821435   0.0848433  )
        23           C   tau(  23) = (   0.3662874   1.5814763   1.7051866  )
        24           C   tau(  24) = (   0.6451484   1.0300899   1.7161630  )
        25           H   tau(  25) = (   0.5102892   1.7554663   0.8282025  )
        26           H   tau(  26) = (   0.0356269   1.6874815   1.1510381  )
        27           H   tau(  27) = (   0.5329437   0.8274997   0.8457352  )
        28           H   tau(  28) = (   0.6862551   1.0734274   1.1269065  )
        29           H   tau(  29) = (   0.3482924   1.5247261   1.1160863  )
        30           H   tau(  30) = (   0.9344179   1.4579654   1.4236541  )
        31           H   tau(  31) = (   0.0924549   1.1441188   1.4188683  )
        32           H   tau(  32) = (   1.0000050   0.9013706   1.1515643  )
        33           H   tau(  33) = (  -0.0507724  -0.0249823   1.7214754  )
        34           H   tau(  34) = (   0.5966885   0.0430025   0.2577652  )
        35           H   tau(  35) = (   1.0576066   0.9029842   1.7390080  )
        36           H   tau(  36) = (   0.1615922   0.6570565   0.2336336  )
        37           H   tau(  37) = (   0.9093541   0.2057578   0.2228134  )
        38           H   tau(  38) = (   0.4097550   0.2725185   0.5303813  )
        39           H   tau(  39) = (   0.6535165   0.5863651   0.5255954  )
        40           H   tau(  40) = (   0.4753421   0.8291133   0.2582915  )
        41           N   tau(  41) = (   0.6374404   1.4877043   1.2765630  )
        42           N   tau(  42) = (   0.3929843   1.1121727   1.2796462  )
        43           N   tau(  43) = (   0.1127775   0.2427797   0.3832901  )
        44           N   tau(  44) = (   0.9540459   0.6183112   0.3863733  )
        45           Ni  tau(  45) = (   0.5116244   1.3037607   1.4936297  )
        46           Ni  tau(  46) = (   1.0726861   0.4267232   0.6003568  )
        47           O   tau(  47) = (   0.2330320   0.6141077   0.6727486  )
        48           O   tau(  48) = (   0.8213931   0.2370422   0.6583994  )
        49           O   tau(  49) = (   1.0099434   0.6403198   0.8299772  )
        50           O   tau(  50) = (   0.0390173   0.2053611   0.8243919  )
        51           O   tau(  51) = (   0.7576949   1.1163762   1.5660215  )
        52           O   tau(  52) = (   0.2603315   1.4934417   1.5516722  )
        53           O   tau(  53) = (   0.4488818   1.0901641   1.7232501  )
        54           O   tau(  54) = (   0.5636802   1.5251228   1.7176647  )

     number of k points=     1  Marzari-Vanderbilt smearing, width (Ry)=  0.2000
                       cart. coord. in units 2pi/alat
        k(    1) = (   0.0000000   0.0000000   0.0000000), wk =   1.0000000

     Check: negative core charge=   -0.000144

     Initial potential from superposition of free atoms

     starting charge  199.99835, renormalised to  200.00000
     Starting wfcs are  178 randomized atomic wfcs

     Self-consistent Calculation

     iteration #  1     ecut=   100.00 Ry     beta= 0.70
     Davidson diagonalization with overlap
     c_bands:  4 eigenvalues not converged
     ethr =  1.00E-06,  avg # of iterations = 20.0

[...]

     total energy              =    -811.24801733 Ry
     Harris-Foulkes estimate   =    -811.24801733 Ry
     estimated scf accuracy    <       0.00000001 Ry

[...]

     iteration # 21     ecut=   100.00 Ry     beta= 0.70
     Davidson diagonalization with overlap
     ethr =  6.81E-12,  avg # of iterations =  2.5

     Magnetic moment per site:
     atom:    1    charge:    0.5737    magn:    0.0055    constr:    0.0000
     atom:    2    charge:    0.5751    magn:    0.0043    constr:    0.0000
     atom:    3    charge:    0.5735    magn:    0.0055    constr:    0.0000
     atom:    4    charge:    0.5735    magn:    0.0054    constr:    0.0000
     atom:    5    charge:    0.5674    magn:    0.0047    constr:    0.0000
     atom:    6    charge:    0.5675    magn:    0.0048    constr:    0.0000
     atom:    7    charge:    0.5674    magn:    0.0047    constr:    0.0000
     atom:    8    charge:    0.5676    magn:    0.0047    constr:    0.0000
     atom:    9    charge:    0.5741    magn:    0.0054    constr:    0.0000
     atom:   10    charge:    0.5760    magn:    0.0043    constr:    0.0000
     atom:   11    charge:    0.5551    magn:   -0.0014    constr:    0.0000
     atom:   12    charge:    0.5561    magn:   -0.0014    constr:    0.0000
     atom:   13    charge:    0.5737    magn:    0.0055    constr:    0.0000
     atom:   14    charge:    0.5751    magn:    0.0043    constr:    0.0000
     atom:   15    charge:    0.5735    magn:    0.0055    constr:    0.0000
     atom:   16    charge:    0.5735    magn:    0.0054    constr:    0.0000
     atom:   17    charge:    0.5674    magn:    0.0047    constr:    0.0000
     atom:   18    charge:    0.5675    magn:    0.0048    constr:    0.0000
     atom:   19    charge:    0.5674    magn:    0.0047    constr:    0.0000
     atom:   20    charge:    0.5676    magn:    0.0047    constr:    0.0000
     atom:   21    charge:    0.5741    magn:    0.0054    constr:    0.0000
     atom:   22    charge:    0.5760    magn:    0.0043    constr:    0.0000
     atom:   23    charge:    0.5551    magn:   -0.0014    constr:    0.0000
     atom:   24    charge:    0.5561    magn:   -0.0014    constr:    0.0000
     atom:   25    charge:    0.3683    magn:   -0.0012    constr:    0.0000
     atom:   26    charge:    0.3684    magn:   -0.0015    constr:    0.0000
     atom:   27    charge:    0.3684    magn:   -0.0012    constr:    0.0000
     atom:   28    charge:    0.3701    magn:   -0.0011    constr:    0.0000
     atom:   29    charge:    0.3699    magn:   -0.0012    constr:    0.0000
     atom:   30    charge:    0.3687    magn:   -0.0008    constr:    0.0000
     atom:   31    charge:    0.3689    magn:   -0.0008    constr:    0.0000
     atom:   32    charge:    0.3686    magn:   -0.0015    constr:    0.0000
     atom:   33    charge:    0.3683    magn:   -0.0012    constr:    0.0000
     atom:   34    charge:    0.3684    magn:   -0.0015    constr:    0.0000
     atom:   35    charge:    0.3684    magn:   -0.0012    constr:    0.0000
     atom:   36    charge:    0.3701    magn:   -0.0011    constr:    0.0000
     atom:   37    charge:    0.3699    magn:   -0.0012    constr:    0.0000
     atom:   38    charge:    0.3687    magn:   -0.0008    constr:    0.0000
     atom:   39    charge:    0.3689    magn:   -0.0008    constr:    0.0000
     atom:   40    charge:    0.3686    magn:   -0.0015    constr:    0.0000
     atom:   41    charge:    2.4110    magn:    0.0190    constr:    0.0000
     atom:   42    charge:    2.4099    magn:    0.0190    constr:    0.0000
     atom:   43    charge:    2.4110    magn:    0.0190    constr:    0.0000
     atom:   44    charge:    2.4099    magn:    0.0190    constr:    0.0000
     atom:   45    charge:    7.3560    magn:    1.0320    constr:    0.0000
     atom:   46    charge:    7.3560    magn:    1.0320    constr:    0.0000
     atom:   47    charge:    3.1182    magn:    0.0685    constr:    0.0000
     atom:   48    charge:    3.1146    magn:    0.0693    constr:    0.0000
     atom:   49    charge:    3.1171    magn:    0.0698    constr:    0.0000
     atom:   50    charge:    3.1185    magn:    0.0710    constr:    0.0000
     atom:   51    charge:    3.1182    magn:    0.0685    constr:    0.0000
     atom:   52    charge:    3.1146    magn:    0.0693    constr:    0.0000
     atom:   53    charge:    3.1171    magn:    0.0698    constr:    0.0000
     atom:   54    charge:    3.1185    magn:    0.0710    constr:    0.0000

     End of self-consistent calculation

 ------ SPIN UP ------------

[...]

 ------ SPIN DOWN ----------

          k = 0.0000 0.0000 0.0000 ( 46801 PWs)   bands (ev):

   -22.6295 -22.6266 -22.4587 -22.4573 -19.5847 -19.5846 -19.5676 -19.5675
   -19.4406 -19.4200 -19.2740 -19.2659 -15.6245 -15.5253 -15.5211 -15.4942
   -14.3393 -14.3209 -14.3021 -14.2688 -11.9547 -11.7596 -11.7349 -11.7301
   -11.1956 -11.1909 -11.1598 -11.1002  -9.5431  -9.2320  -9.2186  -9.1810
    -8.4284  -7.8850  -7.8559  -7.7397  -7.7273  -7.6724  -7.6476  -7.5408
    -6.8883  -6.7654  -6.7414  -6.7231  -6.6629  -6.6020  -6.5493  -6.5282
    -6.4979  -6.4237  -6.3290  -6.2659  -6.2481  -6.2028  -6.0926  -5.9655
    -5.8996  -5.7317  -5.5715  -5.5588  -5.4917  -5.3437  -5.3328  -5.0180
    -4.7318  -4.3167  -4.2988  -4.2257  -4.1524  -4.1467  -3.8777  -3.7283
    -3.6094  -3.5038  -3.4235  -3.3438  -3.0291  -2.9546  -2.8995  -2.8791
    -2.8387  -2.5229  -2.4487  -2.4240  -2.4019  -2.3714  -2.2358  -2.1738
    -2.1591  -2.0970  -1.9187  -1.8480  -1.8301  -1.5346  -1.5158  -1.4980
    -1.4418  -1.3591   0.5172   0.5223   0.8106   0.8837   1.7638   1.8891
     1.9216   1.9712   3.0229   3.0460   3.2181   3.2620   3.4932   4.2881
     4.3892   4.4136   4.5410   4.6135   5.1501   5.3489   5.5056   5.6335
     5.6671   5.8239

     the spin up/dw Fermi energies are     0.1201   -0.3210 ev

!    total energy              =    -811.24801735 Ry
     Harris-Foulkes estimate   =    -811.24801734 Ry
     estimated scf accuracy    <          6.2E-09 Ry

     The total energy is the sum of the following terms:

     one-electron contribution =   -1271.57870888 Ry
     hartree contribution      =     705.09957152 Ry
     xc contribution           =    -246.73883694 Ry
     ewald contribution        =       0.78696306 Ry
     Dispersion Correction     =      -0.20537685 Ry
     smearing contrib. (-TS)   =       1.38837074 Ry

     total magnetization       =     4.00 Bohr mag/cell
     absolute magnetization    =     4.15 Bohr mag/cell

     convergence has been achieved in  21 iterations

     Forces acting on atoms (cartesian axes, Ry/au):

     atom    1 type  1   force =     0.00002162   -0.00060199    0.00049642
     atom    2 type  1   force =    -0.00007609    0.00002551    0.00082880
     atom    3 type  1   force =    -0.00028047   -0.00014557    0.00057029
     atom    4 type  1   force =     0.00042610    0.00085978    0.00048004
     atom    5 type  1   force =    -0.00007346    0.00135139    0.00058110
     atom    6 type  1   force =    -0.00057208   -0.00088783    0.00027440
     atom    7 type  1   force =     0.00051178    0.00029846    0.00070512
     atom    8 type  1   force =    -0.00059634    0.00013672    0.00051129
     atom    9 type  1   force =     0.00033508    0.00004172    0.00080146
     atom   10 type  1   force =     0.00019919    0.00045039    0.00025777
     atom   11 type  1   force =     0.00050015    0.00092245    0.00005408
     atom   12 type  1   force =    -0.00045522   -0.00003231   -0.00025919
     atom   13 type  1   force =     0.00002162    0.00060199    0.00049642
     atom   14 type  1   force =    -0.00007609   -0.00002551    0.00082880
     atom   15 type  1   force =    -0.00028047    0.00014557    0.00057029
     atom   16 type  1   force =     0.00042610   -0.00085978    0.00048004
     atom   17 type  1   force =    -0.00007346   -0.00135139    0.00058110
     atom   18 type  1   force =    -0.00057208    0.00088783    0.00027440
     atom   19 type  1   force =     0.00051178   -0.00029846    0.00070512
     atom   20 type  1   force =    -0.00059634   -0.00013672    0.00051129
     atom   21 type  1   force =     0.00033508   -0.00004172    0.00080146
     atom   22 type  1   force =     0.00019919   -0.00045039    0.00025777
     atom   23 type  1   force =     0.00050015   -0.00092245    0.00005408
     atom   24 type  1   force =    -0.00045522    0.00003231   -0.00025919
     atom   25 type  2   force =     0.00036871    0.00021774    0.00061336
     atom   26 type  2   force =    -0.00043100   -0.00032501    0.00075629
     atom   27 type  2   force =     0.00009157    0.00013989    0.00067894
     atom   28 type  2   force =    -0.00191335   -0.00104602    0.00058181
     atom   29 type  2   force =     0.00122335    0.00071622    0.00042656
     atom   30 type  2   force =    -0.00051643    0.00061845   -0.00053469
     atom   31 type  2   force =     0.00099326   -0.00085261   -0.00013699
     atom   32 type  2   force =     0.00050280    0.00015758    0.00089508
     atom   33 type  2   force =     0.00036871   -0.00021774    0.00061336
     atom   34 type  2   force =    -0.00043100    0.00032501    0.00075629
     atom   35 type  2   force =     0.00009157   -0.00013989    0.00067894
     atom   36 type  2   force =    -0.00191335    0.00104602    0.00058181
     atom   37 type  2   force =     0.00122335   -0.00071622    0.00042656
     atom   38 type  2   force =    -0.00051643   -0.00061845   -0.00053469
     atom   39 type  2   force =     0.00099326    0.00085261   -0.00013699
     atom   40 type  2   force =     0.00050280   -0.00015758    0.00089508
     atom   41 type  3   force =    -0.00002477   -0.00356758   -0.00168470
     atom   42 type  3   force =    -0.00045515    0.00376683   -0.00069007
     atom   43 type  3   force =    -0.00002477    0.00356758   -0.00168470
     atom   44 type  3   force =    -0.00045515   -0.00376683   -0.00069007
     atom   45 type  4   force =    -0.00097809    0.01494643   -0.01142299
     atom   46 type  4   force =    -0.00097809   -0.01494643   -0.01142299
     atom   47 type  5   force =    -0.00128100   -0.00151954    0.00203072
     atom   48 type  5   force =     0.00168227    0.00156998    0.00215577
     atom   49 type  5   force =     0.00308800   -0.00140723   -0.00019666
     atom   50 type  5   force =    -0.00229043    0.00128005    0.00122598
     atom   51 type  5   force =    -0.00128100    0.00151954    0.00203072
     atom   52 type  5   force =     0.00168227   -0.00156998    0.00215577
     atom   53 type  5   force =     0.00308800    0.00140723   -0.00019666
     atom   54 type  5   force =    -0.00229043   -0.00128005    0.00122598

     Total force =     0.029878     Total SCF correction =     0.000146

     Computing stress (Cartesian axis) and pressure

          total   stress  (Ry/bohr**3)                   (kbar)     P=       16.99
   0.00012720   0.00000000   0.00000556           18.71        0.00        0.82
   0.00000000   0.00011273   0.00000000            0.00       16.58        0.00
   0.00000556   0.00000000   0.00010649            0.82        0.00       15.66

     Writing output data file ./QE_relaxation_results/PBESOL_vc-relax/NiPyC2_pbesol_vc-relax.save/

     General routines

     Parallel routines

   This run was terminated on:   0:37:41   9Jun2020

   JOB DONE.
QE finished Tue Jun 9 00:37:41 PDT 2020