     Program PWSCF v.6.5 starts on 29Jul2020 at 11:44:54

     K-points division:     npool     =       2
     R & G space division:  proc/nbgrp/npool/nimage =       8
     Reading input from ./QE_input_scripts/pw.NiPyC2_relax_sc211_meta_functionalized_Br_vdw-df2_relax.in
Warning: card &CELL ignored
Warning: card    CELL_DYNAMICS = 'BFGS' ignored
Warning: card    CELL_DOFREE = 'XYZ' ignored
Warning: card / ignored

     Current dimensions of program PWSCF are:
     Max number of different atomic species (ntypx) = 10
     Max number of k-points (npk) =  40000
     Max angular momentum in pseudopotentials (lmaxx) =  3

     IMPORTANT: XC functional enforced from input :
     Exchange-correlation= VDW-DF2
                           (   1   4  13   0   2   0   0)
     Any further DFT definition will be discarded
     Please, verify this is what you really want

     Parameters for Dispersion (Grimme-D2) Correction:
       atom      VdW radius       C_6

        Br         3.305        432.600
        C          2.744         60.710
        H          1.892          4.857
        N          2.640         42.670
        Ni         2.952        374.666
        O          2.536         24.284

     gamma-point specific algorithms are used

     Subspace diagonalization in iterative solution of the eigenvalue problem:
     a serial algorithm will be used

     bravais-lattice index     =            0
     lattice parameter (alat)  =      23.6322  a.u.
     unit-cell volume          =   10858.6228 (a.u.)^3
     number of atoms/cell      =          108
     number of atomic types    =            6
     number of electrons       =       448.00 (up: 228.00, down: 220.00)
     number of Kohn-Sham states=          274
     kinetic-energy cutoff     =     100.0000  Ry
     charge density cutoff     =     400.0000  Ry
     convergence threshold     =      1.0E-06
     mixing beta               =       0.7000
     number of iterations used =            8  local-TF  mixing
     Exchange-correlation= VDW-DF2
                           (   1   4  13   0   2   0   0)
     nstep                     =          200

     celldm(1)=  23.632159  celldm(2)=   0.000000  celldm(3)=   0.000000
     celldm(4)=   0.000000  celldm(5)=   0.000000  celldm(6)=   0.000000

     crystal axes: (cart. coord. in units of alat)
               a(1) = (   1.000000   0.000000   0.000000 )
               a(2) = (   0.000000   1.001423   0.000000 )
               a(3) = (  -0.018199   0.000000   0.821574 )

     reciprocal axes: (cart. coord. in units 2 pi/alat)
               b(1) = (  1.000000  0.000000  0.022152 )
               b(2) = (  0.000000  0.998579  0.000000 )
               b(3) = (  0.000000  0.000000  1.217175 )

     PseudoPot. # 1 for Br read from file:
     ./pseudo/Br.pbesol-n-nc.UPF
     MD5 check sum: aa882b714d6bd557db24118bfa7419d9
     Pseudo is Norm-conserving + core correction, Zval =  7.0
     Generated using "atomic" code by A. Dal Corso v.6.5
     Using radial grid of 1213 points,  2 beta functions with:
                l(1) =   0
                l(2) =   1

     PseudoPot. # 2 for C  read from file:
     ./pseudo/C.pbesol-nc.UPF
     MD5 check sum: ce26087537ded160c8d400e183a8bf42
     Pseudo is Norm-conserving, Zval =  4.0
     Generated using "atomic" code by A. Dal Corso v.6.5
     Using radial grid of 1073 points,  1 beta functions with:
                l(1) =   1

     PseudoPot. # 3 for H  read from file:
     ./pseudo/H.pbesol-n-nc.UPF
     MD5 check sum: 7995ef24074557c85b430109caaacc09
     Pseudo is Norm-conserving, Zval =  1.0
     Generated using "atomic" code by A. Dal Corso v.6.5
     Using radial grid of  929 points,  0 beta functions with:

     PseudoPot. # 4 for N  read from file:
     ./pseudo/N.pbesol-nc.UPF
     MD5 check sum: e18cc5e4b8a5600c1a19b30c2cab1ca0
     Pseudo is Norm-conserving, Zval =  5.0
     Generated using "atomic" code by A. Dal Corso v.6.5
     Using radial grid of 1085 points,  1 beta functions with:
                l(1) =   1

     PseudoPot. # 5 for Ni read from file:
     ./pseudo/Ni.pbesol-n-nc.UPF
     MD5 check sum: 623411631e0c2eb7c0b2b9815547d2d9
     Pseudo is Norm-conserving + core correction, Zval = 10.0
     Generated using "atomic" code by A. Dal Corso v.6.5
     Using radial grid of 1195 points,  2 beta functions with:
                l(1) =   1
                l(2) =   2

     PseudoPot. # 6 for O  read from file:
     ./pseudo/O.pbesol-nc.UPF
     MD5 check sum: 73d10e7e91dbfcbe8a7e362101007f84
     Pseudo is Norm-conserving, Zval =  6.0
     Generated using "atomic" code by A. Dal Corso v.6.5
     Using radial grid of 1095 points,  1 beta functions with:
                l(1) =   1

     atomic species   valence    mass     pseudopotential
        Br             7.00    79.90400     Br( 1.00)
        C              4.00    12.01070     C ( 1.00)
        H              1.00     1.00794     H ( 1.00)
        N              5.00    14.00670     N ( 1.00)
        Ni            10.00    58.69340     Ni( 1.00)
        O              6.00    15.99940     O ( 1.00)

     Starting magnetic structure
     atomic species   magnetization
        Br           0.000
        C            0.000
        H            0.000
        N            0.000
        Ni           0.250
        O            0.000

     No symmetry found

   Cartesian axes

     site n.     atom                  positions (alat units)
         1           Br  tau(   1) = (   0.5819058   0.0163072   0.5721082  )
         2           Br  tau(   2) = (   0.3412546   0.9818255   0.1599580  )
         3           Br  tau(   3) = (   0.8945211   0.4745345   0.5707370  )
         4           Br  tau(   4) = (   0.1539678   0.5253747   0.1617129  )
         5           Br  tau(   5) = (   0.0819058   0.0163072   0.5721082  )
         6           Br  tau(   6) = (   0.4273232   0.9882997   0.7249892  )
         7           Br  tau(   7) = (   0.7936544   0.4858736   0.3199120  )
         8           Br  tau(   8) = (   0.6539678   0.5253747   0.1617129  )
         9           C   tau(   9) = (   0.2787122   0.9714307   0.4288486  )
        10           C   tau(  10) = (   0.0379730   0.0311503   0.0183277  )
        11           C   tau(  11) = (   0.3806882   0.0117868   0.4489838  )
        12           C   tau(  12) = (   0.1394042   0.9891499   0.0379124  )
        13           C   tau(  13) = (   0.4400787   0.9715829   0.5343281  )
        14           C   tau(  14) = (   0.1997920   0.0283934   0.1231482  )
        15           C   tau(  15) = (   0.1986011   0.5304580   0.4324635  )
        16           C   tau(  16) = (   0.4580372   0.4720800   0.0229252  )
        17           C   tau(  17) = (   0.2341003   0.6142040   0.4982314  )
        18           C   tau(  18) = (   0.4948422   0.3892302   0.0892369  )
        19           C   tau(  19) = (   0.2384981   0.8904717   0.4955761  )
        20           C   tau(  20) = (  -0.0008282   0.1123917   0.0856467  )
        21           C   tau(  21) = (   0.3947360   0.8906489   0.5977380  )
        22           C   tau(  22) = (   0.1557890   0.1097029   0.1871645  )
        23           C   tau(  23) = (   0.0756247   0.6098498   0.5975737  )
        24           C   tau(  24) = (   0.3367152   0.3921904   0.1884642  )
        25           C   tau(  25) = (   0.0350715   0.5258264   0.5351012  )
        26           C   tau(  26) = (   0.2948780   0.4753867   0.1254988  )
        27           C   tau(  27) = (   0.0981522   0.4849593   0.4519611  )
        28           C   tau(  28) = (   0.3569104   0.5163900   0.0416029  )
        29           C   tau(  29) = (   0.4248178   0.0994604   0.3833638  )
        30           C   tau(  30) = (   0.1639424   0.9010006   0.7933713  )
        31           C   tau(  31) = (   0.0588120   0.3950355   0.3866953  )
        32           C   tau(  32) = (   0.2984059   0.6050320   0.7961934  )
        33           C   tau(  33) = (   0.7787122   0.9714307   0.4288486  )
        34           C   tau(  34) = (   0.5379730   0.0311503   0.0183277  )
        35           C   tau(  35) = (   0.8806882   0.0117868   0.4489838  )
        36           C   tau(  36) = (   0.6394042   0.9891499   0.0379124  )
        37           C   tau(  37) = (   0.9400787   0.9715829   0.5343281  )
        38           C   tau(  38) = (   0.6997920   0.0283934   0.1231482  )
        39           C   tau(  39) = (   0.6986021   0.5304580   0.4324635  )
        40           C   tau(  40) = (   0.9580382   0.4720800   0.0229252  )
        41           C   tau(  41) = (   0.7341003   0.6142040   0.4982314  )
        42           C   tau(  42) = (   0.9948422   0.3892302   0.0892369  )
        43           C   tau(  43) = (   0.7384981   0.8904717   0.4955761  )
        44           C   tau(  44) = (   0.4991718   0.1123917   0.0856467  )
        45           C   tau(  45) = (   0.8947360   0.8906489   0.5977380  )
        46           C   tau(  46) = (   0.6557880   0.1097029   0.1871645  )
        47           C   tau(  47) = (   0.5756247   0.6098498   0.5975737  )
        48           C   tau(  48) = (   0.8367152   0.3921904   0.1884642  )
        49           C   tau(  49) = (   0.5350715   0.5258264   0.5351012  )
        50           C   tau(  50) = (   0.7948780   0.4753867   0.1254988  )
        51           C   tau(  51) = (   0.5981522   0.4849593   0.4519611  )
        52           C   tau(  52) = (   0.8569104   0.5163900   0.0416029  )
        53           C   tau(  53) = (   0.9248178   0.0994604   0.3833638  )
        54           C   tau(  54) = (   0.6639424   0.9010006   0.7933713  )
        55           C   tau(  55) = (   0.5588110   0.3950355   0.3866953  )
        56           C   tau(  56) = (   0.7984059   0.6050320   0.7961934  )
        57           H   tau(  57) = (   0.2290596   1.0009978   0.3640502  )
        58           H   tau(  58) = (   0.2505234   0.5016080   0.3691185  )
        59           H   tau(  59) = (  -0.0086584   0.5011092   0.7809458  )
        60           H   tau(  60) = (   0.3118554   0.6514319   0.4868937  )
[...]
        94           O   tau(  94) = (   0.3551690   0.6519036   0.7240468  )
        95           O   tau(  95) = (   0.3707656   0.1477170   0.3098797  )
        96           O   tau(  96) = (   0.1091506   0.8535652   0.7199135  )
        97           O   tau(  97) = (   0.4642788   0.3566669   0.3968154  )
        98           O   tau(  98) = (   0.2033039   0.6423280   0.8050417  )
        99           O   tau(  99) = (   0.0200847   0.1353504   0.3952413  )
       100           O   tau( 100) = (   0.2588616   0.8639860   0.8046490  )
       101           O   tau( 101) = (   0.6158110   0.3481839   0.3145586  )
       102           O   tau( 102) = (   0.8551690   0.6519036   0.7240468  )
       103           O   tau( 103) = (   0.8707656   0.1477170   0.3098797  )
       104           O   tau( 104) = (   0.6091506   0.8535652   0.7199135  )
       105           O   tau( 105) = (   0.9642788   0.3566669   0.3968154  )
       106           O   tau( 106) = (   0.7033039   0.6423280   0.8050417  )
[...]
     atom:   52    charge:    0.7694    magn:    0.0033    constr:    0.0000
     atom:   53    charge:    0.7182    magn:   -0.0017    constr:    0.0000
     atom:   54    charge:    0.7708    magn:   -0.0017    constr:    0.0000
     atom:   55    charge:    0.7922    magn:   -0.0018    constr:    0.0000
     atom:   56    charge:    0.5033    magn:   -0.0015    constr:    0.0000
     atom:   57    charge:    0.0692    magn:    0.0007    constr:    0.0000
     atom:   58    charge:    0.2087    magn:    0.0004    constr:    0.0000
     atom:   59    charge:    0.0749    magn:    0.0008    constr:    0.0000
     atom:   60    charge:    0.4194    magn:   -0.0007    constr:    0.0000
[...]
     atom:   94    charge:    3.0414    magn:    0.0423    constr:    0.0000
     atom:   95    charge:    1.9383    magn:    0.0291    constr:    0.0000
     atom:   96    charge:    2.9811    magn:    0.0454    constr:    0.0000
     atom:   97    charge:    2.3842    magn:    0.0338    constr:    0.0000
     atom:   98    charge:    3.0342    magn:    0.0422    constr:    0.0000
     atom:   99    charge:    2.8286    magn:    0.0393    constr:    0.0000
     atom:  100    charge:    2.9932    magn:    0.0441    constr:    0.0000
     atom:  101    charge:    3.0060    magn:    0.0443    constr:    0.0000
     atom:  102    charge:    1.7053    magn:    0.0276    constr:    0.0000
     atom:  103    charge:    2.9431    magn:    0.0401    constr:    0.0000
     atom:  104    charge:    2.8636    magn:    0.0435    constr:    0.0000
     atom:  105    charge:    2.8691    magn:    0.0424    constr:    0.0000
     atom:  106    charge:    1.5224    magn:    0.0274    constr:    0.0000
     atom:  107    charge:    2.2238    magn:    0.0350    constr:    0.0000
     atom:  108    charge:    1.7998    magn:    0.0260    constr:    0.0000

     End of self-consistent calculation

 ------ SPIN UP ------------

[...]

 ------ SPIN DOWN ----------

          k = 0.0000 0.0000 0.0000 ( 91663 PWs)   bands (ev):

   -21.0388 -21.0241 -20.9716 -20.9292 -20.8662 -20.8640 -20.8615 -20.8271
   -18.2877 -18.2585 -18.2309 -18.2231 -18.1778 -18.1639 -18.1523 -18.1392
   -18.1384 -18.1295 -18.1262 -18.1229 -18.0749 -18.0681 -18.0558 -18.0505
   -15.5703 -15.5560 -15.4693 -15.4656 -15.4154 -15.4024 -15.3779 -15.3680
   -14.2452 -14.2334 -14.1932 -14.1831 -14.1746 -14.1709 -14.1199 -14.0975
   -13.0556 -13.0269 -12.9652 -12.9232 -12.9221 -12.9115 -12.8921 -12.8594
   -10.8381 -10.8056 -10.7871 -10.7446 -10.7380 -10.7150 -10.6945 -10.6838
   -10.0221 -10.0158  -9.9408  -9.9119  -9.8744  -9.8718  -9.8247  -9.8095
    -8.5529  -8.3805  -8.3022  -8.2939  -8.2821  -8.2605  -8.2070  -8.1468
    -7.1524  -6.9217  -6.8546  -6.7970  -6.7855  -6.7664  -6.7538  -6.7386
    -6.6928  -6.6630  -6.6578  -6.5373  -6.4574  -6.3863  -6.3548  -6.3123
    -5.9276  -5.8885  -5.8064  -5.7773  -5.7612  -5.7404  -5.6693  -5.6420
    -5.5511  -5.5355  -5.5237  -5.4837  -5.4761  -5.4345  -5.4243  -5.3934
    -5.3814  -5.3660  -5.2275  -5.1823  -5.1685  -5.1553  -5.1299  -5.1149
    -5.0921  -5.0704  -5.0610  -4.9932  -4.9616  -4.8750  -4.8121  -4.7980
    -4.7854  -4.7386  -4.7157  -4.6881  -4.6793  -4.6402  -4.6046  -4.5343
    -4.4009  -4.3807  -4.3539  -4.2360  -4.1337  -4.0766  -4.0597  -3.8781
    -3.5442  -3.4890  -3.4249  -3.4077  -3.3968  -3.3504  -3.3327  -3.2936
    -3.2354  -3.1450  -3.1216  -2.8777  -2.7862  -2.7532  -2.7288  -2.6998
    -2.6507  -2.5963  -2.5362  -2.4839  -2.4323  -2.3692  -2.3440  -2.3356
    -2.3222  -2.2704  -2.2029  -2.1131  -2.0778  -2.0237  -1.9864  -1.9592
    -1.8976  -1.8460  -1.7014  -1.6600  -1.5739  -1.5288  -1.4992  -1.4788
    -1.4641  -1.4184  -1.4040  -1.3798  -1.3401  -1.3031  -1.2646  -1.2292
    -1.2101  -1.1883  -1.1427  -1.0908  -1.0818  -1.0410  -1.0183  -0.9835
    -0.8598  -0.8337  -0.7747  -0.7293  -0.7118  -0.6386  -0.5974  -0.5917
    -0.5176  -0.4670  -0.4101  -0.3717  -0.3627  -0.2521  -0.2402  -0.2122
    -0.1923  -0.1583  -0.1490  -0.1095  -0.1005  -0.0910  -0.0598  -0.0463
    -0.0141   0.0174   0.1077   0.2565   1.1805   1.3053   1.3430   1.3792
     1.7056   1.7440   1.7709   1.7818   2.8886   2.9327   2.9464   2.9970
     3.0517   3.0743   3.1428   3.2077   3.7131   3.8933   3.9295   3.9778
     3.9954   4.0365   4.1103   4.1485   4.1806   4.2442   4.2635   4.3471
     4.7204   4.7925   4.8355   4.8561   4.9433   5.0794   5.2152   5.2859
     5.3744   5.3901   5.4437   5.5168   5.5597   5.5721   5.6292   5.6548
     5.7092   5.8080   5.8780   5.9468   6.1108   6.2210   6.3182   6.6568
     6.6768   6.7798

     the spin up/dw Fermi energies are     1.2978    1.0542 ev

!    total energy              =   -1916.90651611 Ry
     Harris-Foulkes estimate   =   -1916.90651614 Ry
     estimated scf accuracy    <          4.4E-09 Ry

     The total energy is the sum of the following terms:

     one-electron contribution =   -2167.16531161 Ry
     hartree contribution      =    1263.23120570 Ry
     xc contribution           =    -625.92111343 Ry
     ewald contribution        =    -389.27047480 Ry
     Dispersion Correction     =      -0.57005105 Ry
     smearing contrib. (-TS)   =       2.78922908 Ry

     total magnetization       =     8.00 Bohr mag/cell
     absolute magnetization    =     8.23 Bohr mag/cell

     convergence has been achieved in  11 iterations

     Forces acting on atoms (cartesian axes, Ry/au):

     atom    1 type  1   force =    -0.00057486   -0.00027946    0.00025160
     atom    2 type  1   force =     0.00011479    0.00026877   -0.00021992
     atom    3 type  1   force =    -0.00026005    0.00024421    0.00024376
     atom    4 type  1   force =    -0.00031886   -0.00055273    0.00021082
     atom    5 type  1   force =     0.00021510    0.00039963    0.00053841
     atom    6 type  1   force =    -0.00015534    0.00006183   -0.00046721
     atom    7 type  1   force =     0.00043051   -0.00001934    0.00001161
     atom    8 type  1   force =    -0.00021369   -0.00089298    0.00044513
     atom    9 type  2   force =     0.00010409    0.00021806   -0.00013527
     atom   10 type  2   force =     0.00005727    0.00046423    0.00022814
     atom   11 type  2   force =     0.00032369   -0.00021514   -0.00043429
     atom   12 type  2   force =    -0.00020518    0.00012142   -0.00045361
     atom   13 type  2   force =    -0.00006316    0.00043724   -0.00032007
     atom   14 type  2   force =     0.00021708    0.00023520    0.00000176
     atom   15 type  2   force =     0.00032312   -0.00009212    0.00011517
     atom   16 type  2   force =     0.00013997    0.00032730    0.00068909
     atom   17 type  2   force =     0.00004478    0.00040193    0.00002013
     atom   18 type  2   force =    -0.00005180   -0.00001718   -0.00058749
     atom   19 type  2   force =     0.00002560   -0.00057827    0.00085184
     atom   20 type  2   force =    -0.00053482   -0.00050488    0.00005258
     atom   21 type  2   force =     0.00035339   -0.00058700    0.00021926
     atom   22 type  2   force =     0.00034586   -0.00022115    0.00017358
     atom   23 type  2   force =    -0.00007261    0.00009982    0.00030577
     atom   24 type  2   force =    -0.00027060    0.00039732    0.00037254
     atom   25 type  2   force =     0.00010639   -0.00001355   -0.00037535
     atom   26 type  2   force =    -0.00016563    0.00038517    0.00039629
     atom   27 type  2   force =     0.00040598   -0.00030960    0.00031869
     atom   28 type  2   force =    -0.00001218    0.00025836    0.00006804
     atom   29 type  2   force =    -0.00013961    0.00021232   -0.00026045
     atom   30 type  2   force =     0.00022660   -0.00040202   -0.00007652
     atom   31 type  2   force =    -0.00006725   -0.00039726   -0.00002072
     atom   32 type  2   force =     0.00003027    0.00046856    0.00022874
     atom   33 type  2   force =     0.00001180    0.00015576    0.00002695
     atom   34 type  2   force =    -0.00034704   -0.00013037    0.00016152
     atom   35 type  2   force =    -0.00054284    0.00070184    0.00044362
     atom   36 type  2   force =     0.00006801    0.00000811    0.00030717
     atom   37 type  2   force =    -0.00012757    0.00016509   -0.00025674
     atom   38 type  2   force =    -0.00037168   -0.00013377    0.00015479
     atom   39 type  2   force =    -0.00020995   -0.00022799    0.00024702
     atom   40 type  2   force =     0.00025673   -0.00036902   -0.00013371
     atom   41 type  2   force =    -0.00009794   -0.00004885   -0.00011861
     atom   42 type  2   force =     0.00011717   -0.00015801   -0.00016938
     atom   43 type  2   force =     0.00042237   -0.00053761    0.00011391
     atom   44 type  2   force =     0.00008495   -0.00019712   -0.00004937
     atom   45 type  2   force =     0.00008810   -0.00048872    0.00012335
     atom   46 type  2   force =    -0.00013475   -0.00047676   -0.00008789
     atom   47 type  2   force =     0.00018413    0.00006602    0.00084347
     atom   48 type  2   force =    -0.00063146   -0.00059489   -0.00024779
     atom   49 type  2   force =    -0.00028005   -0.00053337   -0.00007706
     atom   50 type  2   force =    -0.00025513   -0.00010064    0.00041116
     atom   51 type  2   force =     0.00020192   -0.00004811    0.00025124
     atom   52 type  2   force =    -0.00014920   -0.00018825   -0.00015622
     atom   53 type  2   force =    -0.00007031   -0.00019775    0.00012189
     atom   54 type  2   force =     0.00004431   -0.00006149   -0.00003923
     atom   55 type  2   force =    -0.00009224    0.00002844   -0.00035354
     atom   56 type  2   force =     0.00009747   -0.00028959   -0.00015800
     atom   57 type  3   force =     0.00094336    0.00019011    0.00047110
     atom   58 type  3   force =     0.00050858   -0.00022371    0.00012521
     atom   59 type  3   force =    -0.00009111   -0.00006874   -0.00004683
     atom   60 type  3   force =    -0.00003487    0.00032562    0.00003341
[...]
     atom   94 type  6   force =     0.00025168   -0.00011224   -0.00003989
     atom   95 type  6   force =     0.00018621    0.00038172   -0.00084956
     atom   96 type  6   force =     0.00035848   -0.00010222   -0.00012545
     atom   97 type  6   force =     0.00003498   -0.00028313   -0.00008531
     atom   98 type  6   force =    -0.00006567    0.00031024   -0.00000324
     atom   99 type  6   force =     0.00000848    0.00038736   -0.00030728
     atom  100 type  6   force =     0.00011616    0.00057013   -0.00039808
     atom  101 type  6   force =     0.00020699    0.00003775    0.00005160
     atom  102 type  6   force =    -0.00005491    0.00041778    0.00042056
     atom  103 type  6   force =    -0.00010596   -0.00033468   -0.00044073
     atom  104 type  6   force =    -0.00031448    0.00067665    0.00052872
     atom  105 type  6   force =    -0.00029756   -0.00030854   -0.00027195
     atom  106 type  6   force =     0.00037343   -0.00058919   -0.00000478
     atom  107 type  6   force =    -0.00031142    0.00036804    0.00026391
     atom  108 type  6   force =    -0.00006869   -0.00027908   -0.00064877

     Total force =     0.005890     Total SCF correction =     0.000173

     bfgs converged in  95 scf cycles and  94 bfgs steps
     (criteria: energy <  1.0E-04 Ry, force <  1.0E-03 Ry/Bohr)

     End of BFGS Geometry Optimization

     Final energy   =   -1916.9065161114 Ry
Begin final coordinates

ATOMIC_POSITIONS (crystal)
Br            0.5963135629       -0.0361785866        0.5892075595
Br            0.3157037792        0.9324735323        0.2331587642
Br            0.9420638893        0.4221016092        0.7418320324
Br            0.2162924158        0.6040088280        0.2481954945
Br            0.0304178475        0.1018823861        0.7462898353
Br            0.4288690045        1.0234262335        0.8977450679
Br            0.8158114038        0.5053804817        0.4212538279
Br            0.6541814387        0.4929297218        0.1030445501
C             0.2655794221        1.0126770616        0.5563028788
C             0.0248163881       -0.0002848970        0.0450571910
C             0.3757715164        0.0297940412        0.5461745489
C             0.1281538722        0.9583540533        0.0627513946
C             0.4455899881        0.9513868859        0.5968836464
C             0.1926290904        0.0041581823        0.1625612746
C             0.2216243033        0.4997426157        0.5488153545
C             0.4116963849        0.4376255708       -0.0105874514
C             0.2487709290        0.5951951078        0.6104330608
C             0.4503801434        0.3572562927        0.0718767126
C             0.2294530986        0.9225325296        0.6221823640
C            -0.0043005620        0.0930359234        0.1086224340
C             0.4048671128        0.8622525096        0.6623790836
C             0.1600229362        0.0990973802        0.2229942395
C             0.0885327222        0.5955022115        0.7250069552
C             0.3421358604        0.4147945341        0.2403801727
C             0.0584444724        0.4979044649        0.6673957524
C             0.3046644922        0.5008283426        0.1650313112
C             0.1211729431        0.4536346146        0.5682208984
C             0.3403438398        0.5131735028        0.0371279874
C             0.4162674673        0.1258552651        0.4807939987
C             0.1681898401        0.8794315134        0.9702056679
C             0.0818977308        0.3716320159        0.4768285438
C             0.3045033498        0.6017221424        0.9534952705
C             0.8434258200        0.9234401139        0.4796032006
C             0.5246829157        0.0451905529        0.0394885394
C             0.9110763858        0.0026892140        0.5303996748
C             0.6281407603        1.0016871784        0.0526091911
C             0.9441060432        0.9953125781        0.6616638336
C             0.6931834676        0.0389862626        0.1562740962
C             0.7190064276        0.5353831019        0.5543291339
C             0.9857712327        0.5130151983        0.0625699177
C             0.7563001376        0.6103336094        0.6451357411
C             1.0174494529        0.4201488026        0.1286263094
C             0.8050284517        0.8444098950        0.5621846204
C             0.4886142537        0.1178645424        0.1318694646
C             0.9054116568        0.9118509654        0.7380572950
C             0.6544560660        0.1156463685        0.2422008653
C             0.5891108842        0.6168740421        0.7431963004
C             0.8398209024        0.3728210174        0.1680766022
C             0.5495005506        0.5371748502        0.6600068809
C             0.8036569399        0.4662472386        0.1050693042
C             0.6142287399        0.4951682490        0.5622669256
C             0.8769467976        0.5388912523        0.0528936796
C             0.9456715978        0.0914376417        0.4480630215
C             0.6705107841        0.9192338478        0.9657076169
C             0.5711943127        0.4117432942        0.4752969850
C             0.8404690916        0.6369145861        0.9850691183
H             0.2086271774        1.0685268935        0.5166376969
H             0.2781981727        0.4631673680        0.4866730413
H             0.0452399242        0.5644659195        1.0224867012
H             0.3240000910        0.6341169829        0.5944171562
[...]
O             0.3654348416        0.6420520951        0.8670233828
O             0.3589936383        0.1780684162        0.3971887290
O             0.1098992559        0.8407801266        0.8769624463
O             0.4716388004        0.3856606847        0.4770324285
O             0.2104805433        0.6405716326        0.9633264410
O             0.0402687163        0.1289481666        0.4598607441
O             0.2675306001        0.8507771844        0.9716539623
O             0.6286808710        0.3592320010        0.3942711546
O             0.8968735066        0.6839528937        0.9003267023
O             0.8822226065        0.1343624317        0.3628329133
O             0.6113526967        0.8598303916        0.8910719247
O             0.9831654756        0.3402436182        0.4764937221
O             0.7461983743        0.6756546027        1.0036784560
O             0.5127308620        0.1591777032        0.4996999886
O             0.7717988498        0.9011893476        0.9633841698
End final coordinates

     Writing output data file /nfs/hpc/share/gantzlen/NiPyC2_relax_sc211_meta_functionalized_Br_vdw-df2_relax.save/

     General routines

     Parallel routines

   This run was terminated on:  18:43: 0  30Jul2020

   JOB DONE.
QE finished Thu Jul 30 18:43:00 PDT 2020