     Program PWSCF v.6.5 starts on 29Jul2020 at 11:44:55

     K-points division:     npool     =       2
     R & G space division:  proc/nbgrp/npool/nimage =       8
     Reading input from ./QE_input_scripts/pw.NiPyC2_relax_sc211_meta_functionalized_F_vdw-df2_relax.in
Warning: card &CELL ignored
Warning: card    CELL_DYNAMICS = 'BFGS' ignored
Warning: card    CELL_DOFREE = 'XYZ' ignored
Warning: card / ignored

     Current dimensions of program PWSCF are:
     Max number of different atomic species (ntypx) = 10
     Max number of k-points (npk) =  40000
     Max angular momentum in pseudopotentials (lmaxx) =  3

     IMPORTANT: XC functional enforced from input :
     Exchange-correlation= VDW-DF2
                           (   1   4  13   0   2   0   0)
     Any further DFT definition will be discarded
     Please, verify this is what you really want

     Parameters for Dispersion (Grimme-D2) Correction:
       atom      VdW radius       C_6

        C          2.744         60.710
        F          2.432         26.018
        H          1.892          4.857
        N          2.640         42.670
        Ni         2.952        374.666
        O          2.536         24.284

     gamma-point specific algorithms are used

     Subspace diagonalization in iterative solution of the eigenvalue problem:
     a serial algorithm will be used

     bravais-lattice index     =            0
     lattice parameter (alat)  =      23.6322  a.u.
     unit-cell volume          =   10858.6228 (a.u.)^3
     number of atoms/cell      =          108
     number of atomic types    =            6
     number of electrons       =       448.00 (up: 228.00, down: 220.00)
     number of Kohn-Sham states=          274
     kinetic-energy cutoff     =     100.0000  Ry
     charge density cutoff     =     400.0000  Ry
     convergence threshold     =      1.0E-06
     mixing beta               =       0.7000
     number of iterations used =            8  local-TF  mixing
     Exchange-correlation= VDW-DF2
                           (   1   4  13   0   2   0   0)
     nstep                     =          200

     celldm(1)=  23.632159  celldm(2)=   0.000000  celldm(3)=   0.000000
     celldm(4)=   0.000000  celldm(5)=   0.000000  celldm(6)=   0.000000

     crystal axes: (cart. coord. in units of alat)
               a(1) = (   1.000000   0.000000   0.000000 )
               a(2) = (   0.000000   1.001423   0.000000 )
               a(3) = (  -0.018199   0.000000   0.821574 )

     reciprocal axes: (cart. coord. in units 2 pi/alat)
               b(1) = (  1.000000  0.000000  0.022152 )
               b(2) = (  0.000000  0.998579  0.000000 )
               b(3) = (  0.000000  0.000000  1.217175 )

     PseudoPot. # 1 for C  read from file:
     ./pseudo/C.pbesol-nc.UPF
     MD5 check sum: ce26087537ded160c8d400e183a8bf42
     Pseudo is Norm-conserving, Zval =  4.0
     Generated using "atomic" code by A. Dal Corso v.6.5
     Using radial grid of 1073 points,  1 beta functions with:
                l(1) =   1

     PseudoPot. # 2 for F  read from file:
     ./pseudo/F.pbesol-n-nc.UPF
     MD5 check sum: 7bfb8b5cfca7590fa41d3808836ab4b2
     Pseudo is Norm-conserving, Zval =  7.0
     Generated using "atomic" code by A. Dal Corso v.6.5
     Using radial grid of 1105 points,  1 beta functions with:
                l(1) =   1

     PseudoPot. # 3 for H  read from file:
     ./pseudo/H.pbesol-n-nc.UPF
     MD5 check sum: 7995ef24074557c85b430109caaacc09
     Pseudo is Norm-conserving, Zval =  1.0
     Generated using "atomic" code by A. Dal Corso v.6.5
     Using radial grid of  929 points,  0 beta functions with:

     PseudoPot. # 4 for N  read from file:
     ./pseudo/N.pbesol-nc.UPF
     MD5 check sum: e18cc5e4b8a5600c1a19b30c2cab1ca0
     Pseudo is Norm-conserving, Zval =  5.0
     Generated using "atomic" code by A. Dal Corso v.6.5
     Using radial grid of 1085 points,  1 beta functions with:
                l(1) =   1

     PseudoPot. # 5 for Ni read from file:
     ./pseudo/Ni.pbesol-n-nc.UPF
     MD5 check sum: 623411631e0c2eb7c0b2b9815547d2d9
     Pseudo is Norm-conserving + core correction, Zval = 10.0
     Generated using "atomic" code by A. Dal Corso v.6.5
     Using radial grid of 1195 points,  2 beta functions with:
                l(1) =   1
                l(2) =   2

     PseudoPot. # 6 for O  read from file:
     ./pseudo/O.pbesol-nc.UPF
     MD5 check sum: 73d10e7e91dbfcbe8a7e362101007f84
     Pseudo is Norm-conserving, Zval =  6.0
     Generated using "atomic" code by A. Dal Corso v.6.5
     Using radial grid of 1095 points,  1 beta functions with:
                l(1) =   1

     atomic species   valence    mass     pseudopotential
        C              4.00    12.01070     C ( 1.00)
        F              7.00    18.99840     F ( 1.00)
        H              1.00     1.00794     H ( 1.00)
        N              5.00    14.00670     N ( 1.00)
        Ni            10.00    58.69340     Ni( 1.00)
        O              6.00    15.99940     O ( 1.00)

     Starting magnetic structure
     atomic species   magnetization
        C            0.000
        F            0.000
        H            0.000
        N            0.000
        Ni           0.250
        O            0.000

     No symmetry found

   Cartesian axes

     site n.     atom                  positions (alat units)
         1           C   tau(   1) = (   0.2787122   0.9714307   0.4288486  )
         2           C   tau(   2) = (   0.0379730   0.0311503   0.0183277  )
         3           C   tau(   3) = (   0.3806882   0.0117868   0.4489838  )
         4           C   tau(   4) = (   0.1394042   0.9891499   0.0379124  )
         5           C   tau(   5) = (   0.4400787   0.9715829   0.5343281  )
         6           C   tau(   6) = (   0.1997920   0.0283934   0.1231482  )
         7           C   tau(   7) = (   0.1986011   0.5304580   0.4324635  )
         8           C   tau(   8) = (   0.4580372   0.4720800   0.0229252  )
         9           C   tau(   9) = (   0.2341003   0.6142040   0.4982314  )
        10           C   tau(  10) = (   0.4948422   0.3892302   0.0892369  )
        11           C   tau(  11) = (   0.2384981   0.8904717   0.4955761  )
        12           C   tau(  12) = (  -0.0008282   0.1123917   0.0856467  )
        13           C   tau(  13) = (   0.3947360   0.8906489   0.5977380  )
        14           C   tau(  14) = (   0.1557890   0.1097029   0.1871645  )
        15           C   tau(  15) = (   0.0756247   0.6098498   0.5975737  )
        16           C   tau(  16) = (   0.3367152   0.3921904   0.1884642  )
        17           C   tau(  17) = (   0.0350715   0.5258264   0.5351012  )
        18           C   tau(  18) = (   0.2948780   0.4753867   0.1254988  )
        19           C   tau(  19) = (   0.0981522   0.4849593   0.4519611  )
        20           C   tau(  20) = (   0.3569104   0.5163900   0.0416029  )
        21           C   tau(  21) = (   0.4248178   0.0994604   0.3833638  )
        22           C   tau(  22) = (   0.1639424   0.9010006   0.7933713  )
        23           C   tau(  23) = (   0.0588120   0.3950355   0.3866953  )
        24           C   tau(  24) = (   0.2984059   0.6050320   0.7961934  )
        25           C   tau(  25) = (   0.7787122   0.9714307   0.4288486  )
        26           C   tau(  26) = (   0.5379730   0.0311503   0.0183277  )
        27           C   tau(  27) = (   0.8806882   0.0117868   0.4489838  )
        28           C   tau(  28) = (   0.6394042   0.9891499   0.0379124  )
        29           C   tau(  29) = (   0.9400787   0.9715829   0.5343281  )
        30           C   tau(  30) = (   0.6997920   0.0283934   0.1231482  )
        31           C   tau(  31) = (   0.6986021   0.5304580   0.4324635  )
        32           C   tau(  32) = (   0.9580382   0.4720800   0.0229252  )
        33           C   tau(  33) = (   0.7341003   0.6142040   0.4982314  )
        34           C   tau(  34) = (   0.9948422   0.3892302   0.0892369  )
        35           C   tau(  35) = (   0.7384981   0.8904717   0.4955761  )
        36           C   tau(  36) = (   0.4991718   0.1123917   0.0856467  )
        37           C   tau(  37) = (   0.8947360   0.8906489   0.5977380  )
        38           C   tau(  38) = (   0.6557880   0.1097029   0.1871645  )
        39           C   tau(  39) = (   0.5756247   0.6098498   0.5975737  )
        40           C   tau(  40) = (   0.8367152   0.3921904   0.1884642  )
        41           C   tau(  41) = (   0.5350715   0.5258264   0.5351012  )
        42           C   tau(  42) = (   0.7948780   0.4753867   0.1254988  )
        43           C   tau(  43) = (   0.5981522   0.4849593   0.4519611  )
        44           C   tau(  44) = (   0.8569104   0.5163900   0.0416029  )
        45           C   tau(  45) = (   0.9248178   0.0994604   0.3833638  )
        46           C   tau(  46) = (   0.6639424   0.9010006   0.7933713  )
        47           C   tau(  47) = (   0.5588110   0.3950355   0.3866953  )
        48           C   tau(  48) = (   0.7984059   0.6050320   0.7961934  )
        49           F   tau(  49) = (   0.5396625   0.0055499   0.5574463  )
        50           F   tau(  50) = (   0.9579154   0.9984451   0.7577979  )
        51           F   tau(  51) = (   0.2623691   0.4959980   0.3520676  )
        52           F   tau(  52) = (   0.1960894   0.5135219   0.1475539  )
        53           F   tau(  53) = (   0.7176447   0.0055058   0.3467134  )
        54           F   tau(  54) = (   0.4579154   0.9984451   0.7577979  )
        55           F   tau(  55) = (   0.7623700   0.4959970   0.3520684  )
        56           F   tau(  56) = (   0.6960894   0.5135219   0.1475539  )
        57           H   tau(  57) = (   0.2290596   1.0009978   0.3640502  )
        58           H   tau(  58) = (   0.0198054   1.0002267   0.5533467  )
        59           H   tau(  59) = (   0.2791988   1.0000865   0.1418054  )
        60           H   tau(  60) = (  -0.0086584   0.5011092   0.7809458  )
[...]
        94           O   tau(  94) = (   0.3551690   0.6519036   0.7240468  )
        95           O   tau(  95) = (   0.3707656   0.1477170   0.3098797  )
        96           O   tau(  96) = (   0.1091506   0.8535652   0.7199135  )
        97           O   tau(  97) = (   0.4642788   0.3566669   0.3968154  )
        98           O   tau(  98) = (   0.2033039   0.6423280   0.8050417  )
        99           O   tau(  99) = (   0.0200847   0.1353504   0.3952413  )
       100           O   tau( 100) = (   0.2588616   0.8639860   0.8046490  )
       101           O   tau( 101) = (   0.6158110   0.3481839   0.3145586  )
       102           O   tau( 102) = (   0.8551690   0.6519036   0.7240468  )
       103           O   tau( 103) = (   0.8707656   0.1477170   0.3098797  )
       104           O   tau( 104) = (   0.6091506   0.8535652   0.7199135  )
       105           O   tau( 105) = (   0.9642788   0.3566669   0.3968154  )
       106           O   tau( 106) = (   0.7033039   0.6423280   0.8050417  )
       107           O   tau( 107) = (   0.5200847   0.1353504   0.3952413  )
[...]
     atom:   52    charge:    4.5521    magn:    0.0061    constr:    0.0000
     atom:   53    charge:    4.4570    magn:    0.0052    constr:    0.0000
     atom:   54    charge:    4.4283    magn:    0.0050    constr:    0.0000
     atom:   55    charge:    4.3801    magn:    0.0048    constr:    0.0000
     atom:   56    charge:    4.5535    magn:    0.0062    constr:    0.0000
     atom:   57    charge:    0.4253    magn:   -0.0009    constr:    0.0000
     atom:   58    charge:    0.4242    magn:   -0.0010    constr:    0.0000
     atom:   59    charge:    0.4955    magn:   -0.0011    constr:    0.0000
     atom:   60    charge:    0.4319    magn:   -0.0009    constr:    0.0000
[...]
     atom:   94    charge:    3.2839    magn:    0.0603    constr:    0.0000
     atom:   95    charge:    3.2555    magn:    0.0588    constr:    0.0000
     atom:   96    charge:    3.2352    magn:    0.0591    constr:    0.0000
     atom:   97    charge:    3.2828    magn:    0.0641    constr:    0.0000
     atom:   98    charge:    3.3050    magn:    0.0615    constr:    0.0000
     atom:   99    charge:    3.2249    magn:    0.0634    constr:    0.0000
     atom:  100    charge:    3.2755    magn:    0.0639    constr:    0.0000
     atom:  101    charge:    3.2909    magn:    0.0603    constr:    0.0000
     atom:  102    charge:    3.2801    magn:    0.0617    constr:    0.0000
     atom:  103    charge:    3.2809    magn:    0.0585    constr:    0.0000
     atom:  104    charge:    3.2453    magn:    0.0617    constr:    0.0000
     atom:  105    charge:    3.2814    magn:    0.0633    constr:    0.0000
     atom:  106    charge:    3.3038    magn:    0.0621    constr:    0.0000
     atom:  107    charge:    3.3011    magn:    0.0631    constr:    0.0000
     atom:  108    charge:    3.1969    magn:    0.0649    constr:    0.0000

     End of self-consistent calculation

 ------ SPIN UP ------------

[...]

 ------ SPIN DOWN ----------

          k = 0.0000 0.0000 0.0000 ( 91663 PWs)   bands (ev):

   -25.5655 -25.5551 -25.5425 -25.5392 -25.5285 -25.4821 -25.4803 -25.4746
   -22.0843 -22.0650 -22.0569 -22.0525 -21.9720 -21.9580 -21.9578 -21.9504
   -19.3031 -19.2768 -19.2611 -19.2570 -19.2098 -19.2031 -19.1929 -19.1913
   -19.1825 -19.1796 -19.1795 -19.1648 -19.1520 -19.1439 -19.1269 -19.1223
   -15.6161 -15.5909 -15.5758 -15.5602 -15.5465 -15.5388 -15.5334 -15.5189
   -14.3366 -14.3162 -14.3149 -14.2759 -14.2536 -14.2527 -14.2015 -14.1939
   -12.0465 -11.9771 -11.9612 -11.9345 -11.9031 -11.8898 -11.8768 -11.8681
   -11.1993 -11.1776 -11.1635 -11.1384 -11.1209 -11.1101 -11.0970 -11.0797
    -9.8293  -9.6183  -9.6071  -9.5650  -9.4589  -9.4064  -9.3831  -9.3295
    -8.5670  -8.5248  -8.4945  -8.4675  -8.4459  -8.4096  -8.3835  -8.3502
    -8.1198  -8.0837  -8.0496  -8.0232  -8.0201  -7.9975  -7.9814  -7.9718
    -7.9088  -7.6686  -7.6079  -7.5838  -7.3582  -7.3058  -7.2644  -7.1925
    -6.8946  -6.8702  -6.8580  -6.8188  -6.7781  -6.7395  -6.7360  -6.7194
    -6.6866  -6.6419  -6.5957  -6.5506  -6.4907  -6.4640  -6.4619  -6.4226
    -6.3868  -6.3672  -6.3292  -6.2920  -6.2704  -6.2512  -6.2142  -6.1658
    -6.1501  -6.1293  -6.1230  -6.0995  -6.0821  -6.0634  -5.9865  -5.9510
    -5.8753  -5.8635  -5.8064  -5.7821  -5.6345  -5.6289  -5.6169  -5.5932
    -5.2494  -5.2103  -5.1871  -5.1447  -5.1037  -5.0849  -5.0548  -5.0325
    -5.0010  -4.9842  -4.9283  -4.9173  -4.8955  -4.8520  -4.8109  -4.7198
    -4.5858  -4.4976  -4.4572  -4.4140  -4.3810  -4.3375  -4.3156  -4.2642
    -4.2053  -4.0485  -4.0147  -3.8004  -3.6285  -3.5758  -3.5282  -3.4213
    -3.3240  -3.2803  -3.2229  -3.0863  -3.0308  -2.9367  -2.8572  -2.7947
    -2.7402  -2.7310  -2.7088  -2.6573  -2.6553  -2.6164  -2.5982  -2.5480
    -2.5088  -2.4611  -2.4025  -2.3419  -2.3166  -2.2909  -2.2430  -2.1835
    -2.1427  -2.1381  -2.0886  -2.0771  -2.0578  -1.9784  -1.8894  -1.8581
    -1.6387  -1.6178  -1.5963  -1.5798  -1.5645  -1.5417  -1.5243  -1.4529
    -1.3621  -1.3563  -1.3544  -1.3245  -1.3028  -1.2910  -1.2841  -1.2382
    -1.2111  -1.1656  -1.1350  -1.1040   0.4084   0.4532   0.4714   0.5079
     0.6723   0.7029   0.7296   0.7771   1.8969   1.9311   1.9634   1.9802
     1.9891   2.0069   2.0622   2.0987   2.7058   3.0822   3.1637   3.2186
     3.2402   3.2955   3.3608   3.4097   3.4942   3.5113   3.5555   3.5836
     4.1985   4.2071   4.2581   4.3434   4.4419   4.5083   4.5490   4.5800
     4.6352   4.6649   4.6886   4.7088   4.7646   4.9699   4.9942   5.1421
     5.2032   5.2609   5.3363   5.6870   5.9576   6.0256   6.0309   6.0573
     6.1499   6.2144

     the spin up/dw Fermi energies are     0.1988   -0.1030 ev

!    total energy              =   -2023.13381677 Ry
     Harris-Foulkes estimate   =   -2023.13381686 Ry
     estimated scf accuracy    <          6.3E-09 Ry

     The total energy is the sum of the following terms:

     one-electron contribution =   -2773.38582002 Ry
     hartree contribution      =    1558.22839460 Ry
     xc contribution           =    -588.51247562 Ry
     ewald contribution        =    -221.74979521 Ry
     Dispersion Correction     =      -0.45513482 Ry
     smearing contrib. (-TS)   =       2.74101430 Ry

     total magnetization       =     8.00 Bohr mag/cell
     absolute magnetization    =     8.32 Bohr mag/cell

     convergence has been achieved in  10 iterations

     Forces acting on atoms (cartesian axes, Ry/au):

     atom    1 type  1   force =     0.00036066   -0.00022408    0.00013005
     atom    2 type  1   force =    -0.00031174    0.00039930   -0.00009225
     atom    3 type  1   force =    -0.00009892   -0.00012091   -0.00003287
     atom    4 type  1   force =    -0.00028547   -0.00016633    0.00031074
     atom    5 type  1   force =    -0.00027515   -0.00008397    0.00022247
     atom    6 type  1   force =    -0.00053301   -0.00022013   -0.00019668
     atom    7 type  1   force =    -0.00031598    0.00029878   -0.00012405
     atom    8 type  1   force =     0.00022230   -0.00004368   -0.00049509
     atom    9 type  1   force =     0.00025908    0.00001195    0.00011373
     atom   10 type  1   force =    -0.00017089   -0.00021061   -0.00002069
     atom   11 type  1   force =     0.00003059    0.00034945    0.00042982
     atom   12 type  1   force =     0.00002364    0.00051779   -0.00003179
     atom   13 type  1   force =    -0.00017537    0.00015115   -0.00016017
     atom   14 type  1   force =     0.00014919   -0.00020869   -0.00020309
     atom   15 type  1   force =    -0.00011531    0.00000223   -0.00010048
     atom   16 type  1   force =    -0.00023131   -0.00003146   -0.00026959
     atom   17 type  1   force =     0.00010789   -0.00021432   -0.00003033
     atom   18 type  1   force =     0.00001510    0.00019564   -0.00025083
     atom   19 type  1   force =    -0.00027661    0.00021520   -0.00020747
     atom   20 type  1   force =     0.00025723   -0.00027003   -0.00016927
     atom   21 type  1   force =    -0.00046370    0.00013731   -0.00015075
     atom   22 type  1   force =     0.00005736    0.00029078    0.00025097
     atom   23 type  1   force =    -0.00015567    0.00002547   -0.00064304
     atom   24 type  1   force =    -0.00012697   -0.00029538   -0.00000885
     atom   25 type  1   force =     0.00032591   -0.00001506   -0.00011250
     atom   26 type  1   force =     0.00018967    0.00007294    0.00008333
     atom   27 type  1   force =     0.00050005   -0.00009684   -0.00028078
     atom   28 type  1   force =     0.00018692   -0.00041262   -0.00004016
     atom   29 type  1   force =     0.00015390   -0.00000631    0.00057215
     atom   30 type  1   force =     0.00034635   -0.00023790    0.00023578
     atom   31 type  1   force =    -0.00030043    0.00008614   -0.00013764
     atom   32 type  1   force =    -0.00008205    0.00019739   -0.00021256
     atom   33 type  1   force =     0.00024727   -0.00012235    0.00015474
     atom   34 type  1   force =     0.00020568   -0.00022276   -0.00007127
     atom   35 type  1   force =    -0.00012050    0.00001822   -0.00022262
     atom   36 type  1   force =    -0.00014261   -0.00031424    0.00006485
     atom   37 type  1   force =    -0.00012384    0.00010933    0.00006932
     atom   38 type  1   force =     0.00027442   -0.00029110    0.00004748
     atom   39 type  1   force =    -0.00068015    0.00006262   -0.00008473
     atom   40 type  1   force =    -0.00015492    0.00000831    0.00001408
     atom   41 type  1   force =    -0.00010697   -0.00026468   -0.00028798
     atom   42 type  1   force =    -0.00005754    0.00030694   -0.00008351
     atom   43 type  1   force =    -0.00065286    0.00010851   -0.00004121
     atom   44 type  1   force =     0.00055314    0.00002975    0.00011530
     atom   45 type  1   force =    -0.00023786   -0.00052617    0.00007086
     atom   46 type  1   force =    -0.00019239    0.00000746    0.00023257
     atom   47 type  1   force =    -0.00006967   -0.00010346   -0.00048364
     atom   48 type  1   force =     0.00005307   -0.00004079    0.00007580
     atom   49 type  2   force =     0.00000602   -0.00023590   -0.00009687
     atom   50 type  2   force =     0.00011068    0.00019883    0.00025462
     atom   51 type  2   force =    -0.00028173    0.00022744   -0.00010145
     atom   52 type  2   force =     0.00011153    0.00016135   -0.00013452
     atom   53 type  2   force =     0.00020311   -0.00016414    0.00026316
     atom   54 type  2   force =     0.00017444   -0.00050158    0.00023956
     atom   55 type  2   force =    -0.00032192    0.00041184    0.00055521
     atom   56 type  2   force =    -0.00009939   -0.00009574   -0.00034808
     atom   57 type  3   force =     0.00016552   -0.00013310    0.00014148
     atom   58 type  3   force =     0.00013270    0.00027826    0.00009946
     atom   59 type  3   force =    -0.00046213   -0.00005400   -0.00016327
     atom   60 type  3   force =     0.00046345    0.00002778   -0.00011619
[...]
     atom   94 type  6   force =    -0.00014500   -0.00027094    0.00013057
     atom   95 type  6   force =    -0.00023917    0.00029993    0.00056550
     atom   96 type  6   force =     0.00017472    0.00005153    0.00066391
     atom   97 type  6   force =    -0.00023023    0.00004082   -0.00038492
     atom   98 type  6   force =     0.00013830   -0.00042903    0.00052607
     atom   99 type  6   force =     0.00003719    0.00018713   -0.00010719
     atom  100 type  6   force =    -0.00007279   -0.00007749    0.00024721
     atom  101 type  6   force =     0.00047851   -0.00007682    0.00046287
     atom  102 type  6   force =    -0.00012787   -0.00004014    0.00020303
     atom  103 type  6   force =    -0.00003555   -0.00017134   -0.00045170
     atom  104 type  6   force =    -0.00009262   -0.00001742    0.00016469
     atom  105 type  6   force =    -0.00013699    0.00040178    0.00004335
     atom  106 type  6   force =    -0.00008340   -0.00044102    0.00030860
     atom  107 type  6   force =    -0.00028760   -0.00014094   -0.00030931
     atom  108 type  6   force =     0.00056937    0.00025832   -0.00007308

     Total force =     0.004610     Total SCF correction =     0.000190

     bfgs converged in  46 scf cycles and  45 bfgs steps
     (criteria: energy <  1.0E-04 Ry, force <  1.0E-03 Ry/Bohr)

     End of BFGS Geometry Optimization

     Final energy   =   -2023.1338167699 Ry
Begin final coordinates

ATOMIC_POSITIONS (crystal)
C             0.2878844156        0.9752351944        0.5310578581
C             0.0416926350        0.0376911539        0.0235310288
C             0.3934046966        0.0104322051        0.5489731159
C             0.1441972932        0.9929869297        0.0445648027
C             0.4562731498        0.9599077373        0.6463835939
C             0.2060260827        0.0350069260        0.1477053494
C             0.2117265289        0.5297131441        0.5333847112
C             0.4590619420        0.4769631963        0.0372235386
C             0.2467121818        0.6144175794        0.6128732550
C             0.4953716441        0.3913034416        0.1137058197
C             0.2489561561        0.8931043525        0.6088063475
C             0.0026505743        0.1163917696        0.1073494170
C             0.4139227087        0.8757257887        0.7204729921
C             0.1643023758        0.1153458589        0.2267778818
C             0.0834386022        0.6146356947        0.7206049078
C             0.3327074857        0.3807084275        0.2219508529
C             0.0450084585        0.5300046511        0.6439683613
C             0.2927697777        0.4676518248        0.1481537552
C             0.1096153349        0.4844640780        0.5491480670
C             0.3555776941        0.5165747838        0.0526813484
C             0.4355813428        0.0973560522        0.4701350566
C             0.1842524756        0.9045409298        0.9658275432
C             0.0703569156        0.3937796133        0.4719513608
C             0.3143282346        0.6045005861        0.9717900912
C             0.7882832496        0.9599413872        0.5198220309
C             0.5347013314        0.0350661958        0.0264090734
C             0.8917499766        0.0028080682        0.5399745495
C             0.6400671773        0.9954309902        0.0402980330
C             0.9549809514        0.9571044422        0.6390408357
C             0.7057033544        0.0444202227        0.1346692810
C             0.7107415128        0.5288787607        0.5345193393
C             0.9595859161        0.4756204971        0.0364395475
C             0.7465276480        0.6124118620        0.6152616519
C             0.9958564678        0.3901819518        0.1132734175
C             0.7499387538        0.8798806645        0.6024181884
C             0.4972055736        0.1142681064        0.1107067057
C             0.9136560118        0.8761772606        0.7174573574
C             0.6652537020        0.1251440601        0.2144427631
C             0.5831041250        0.6136739829        0.7227825372
C             0.8333357411        0.3803082633        0.2220870543
C             0.5439667256        0.5299613161        0.6452456168
C             0.7934584801        0.4671062523        0.1480358857
C             0.6080071275        0.4847243019        0.5497082173
C             0.8562804762        0.5155702806        0.0522141117
C             0.9332516460        0.0930430416        0.4653982725
C             0.6804396116        0.9046458283        0.9653668853
C             0.5674072691        0.3951070773        0.4717721295
C             0.8154117669        0.6039620707        0.9718449473
F             0.5553302968       -0.0088937555        0.6740262482
F             0.9775001027        1.0089480495        0.9252929706
F             0.2793905104        0.4959339841        0.4450058033
F             0.1954374407        0.5024580877        0.1736367086
F             0.7227137260       -0.0084428150        0.4245191351
F             0.4656648085        1.0007122098        0.9362489391
F             0.7782906258        0.4953103122        0.4457993289
F             0.6963223768        0.5023724078        0.1736223035
H             0.2354406045        1.0120911682        0.4601825530
H             0.0342870901        0.9859838723        0.6594444515
H             0.2850377060        1.0049245909        0.1685111948
H             0.0125351272        0.5109776159        0.9677957532
[...]
O             0.3723318538        0.6494238806        0.8844769339
O             0.3772011045        0.1418951662        0.3791859879
O             0.1273009693        0.8589362697        0.8750251751
O             0.4715173198        0.3595458490        0.4849356233
O             0.2186181371        0.6409824266        0.9801079323
O             0.0292641734        0.1275029360        0.4835878077
O             0.2786079476        0.8659006036        0.9838760418
O             0.6231587607        0.3462573603        0.3861072496
O             0.8731119899        0.6485734444        0.8842012758
O             0.8765728215        0.1439585201        0.3788666602
O             0.6219608629        0.8510372715        0.8834757609
O             0.9740706129        0.3586760846        0.4843672052
O             0.7201807104        0.6413824460        0.9812406603
O             0.5303315874        0.1349679168        0.4841851009
O             0.7776008633        0.8718706222        0.9790380694
End final coordinates

     Writing output data file /nfs/hpc/share/gantzlen/NiPyC2_relax_sc211_meta_functionalized_F_vdw-df2_relax.save/

     General routines

     Parallel routines

   This run was terminated on:  20:17: 1  30Jul2020

   JOB DONE.
QE finished Thu Jul 30 20:17:02 PDT 2020