     Program PWSCF v.6.5 starts on 29Jul2020 at 11:44:55

     K-points division:     npool     =       2
     R & G space division:  proc/nbgrp/npool/nimage =       8
     Reading input from ./QE_input_scripts/pw.NiPyC2_relax_sc211_meta_functionalized_OH_vdw-df2_relax.in
Warning: card &CELL ignored
Warning: card    CELL_DYNAMICS = 'BFGS' ignored
Warning: card    CELL_DOFREE = 'XYZ' ignored
Warning: card / ignored

     Current dimensions of program PWSCF are:
     Max number of different atomic species (ntypx) = 10
     Max number of k-points (npk) =  40000
     Max angular momentum in pseudopotentials (lmaxx) =  3

     IMPORTANT: XC functional enforced from input :
     Exchange-correlation= VDW-DF2
                           (   1   4  13   0   2   0   0)
     Any further DFT definition will be discarded
     Please, verify this is what you really want

     Parameters for Dispersion (Grimme-D2) Correction:
       atom      VdW radius       C_6

        C          2.744         60.710
        H          1.892          4.857
        N          2.640         42.670
        Ni         2.952        374.666
        O          2.536         24.284

     gamma-point specific algorithms are used

     Subspace diagonalization in iterative solution of the eigenvalue problem:
     a serial algorithm will be used

     bravais-lattice index     =            0
     lattice parameter (alat)  =      23.6322  a.u.
     unit-cell volume          =   10858.6228 (a.u.)^3
     number of atoms/cell      =          116
     number of atomic types    =            5
     number of electrons       =       448.00 (up: 228.00, down: 220.00)
     number of Kohn-Sham states=          274
     kinetic-energy cutoff     =     100.0000  Ry
     charge density cutoff     =     400.0000  Ry
     convergence threshold     =      1.0E-06
     mixing beta               =       0.7000
     number of iterations used =            8  local-TF  mixing
     Exchange-correlation= VDW-DF2
                           (   1   4  13   0   2   0   0)
     nstep                     =          200

     celldm(1)=  23.632159  celldm(2)=   0.000000  celldm(3)=   0.000000
     celldm(4)=   0.000000  celldm(5)=   0.000000  celldm(6)=   0.000000

     crystal axes: (cart. coord. in units of alat)
               a(1) = (   1.000000   0.000000   0.000000 )
               a(2) = (   0.000000   1.001423   0.000000 )
               a(3) = (  -0.018199   0.000000   0.821574 )

     reciprocal axes: (cart. coord. in units 2 pi/alat)
               b(1) = (  1.000000  0.000000  0.022152 )
               b(2) = (  0.000000  0.998579  0.000000 )
               b(3) = (  0.000000  0.000000  1.217175 )

     PseudoPot. # 1 for C  read from file:
     ./pseudo/C.pbesol-nc.UPF
     MD5 check sum: ce26087537ded160c8d400e183a8bf42
     Pseudo is Norm-conserving, Zval =  4.0
     Generated using "atomic" code by A. Dal Corso v.6.5
     Using radial grid of 1073 points,  1 beta functions with:
                l(1) =   1

     PseudoPot. # 2 for H  read from file:
     ./pseudo/H.pbesol-n-nc.UPF
     MD5 check sum: 7995ef24074557c85b430109caaacc09
     Pseudo is Norm-conserving, Zval =  1.0
     Generated using "atomic" code by A. Dal Corso v.6.5
     Using radial grid of  929 points,  0 beta functions with:

     PseudoPot. # 3 for N  read from file:
     ./pseudo/N.pbesol-nc.UPF
     MD5 check sum: e18cc5e4b8a5600c1a19b30c2cab1ca0
     Pseudo is Norm-conserving, Zval =  5.0
     Generated using "atomic" code by A. Dal Corso v.6.5
     Using radial grid of 1085 points,  1 beta functions with:
                l(1) =   1

     PseudoPot. # 4 for Ni read from file:
     ./pseudo/Ni.pbesol-n-nc.UPF
     MD5 check sum: 623411631e0c2eb7c0b2b9815547d2d9
     Pseudo is Norm-conserving + core correction, Zval = 10.0
     Generated using "atomic" code by A. Dal Corso v.6.5
     Using radial grid of 1195 points,  2 beta functions with:
                l(1) =   1
                l(2) =   2

     PseudoPot. # 5 for O  read from file:
     ./pseudo/O.pbesol-nc.UPF
     MD5 check sum: 73d10e7e91dbfcbe8a7e362101007f84
     Pseudo is Norm-conserving, Zval =  6.0
     Generated using "atomic" code by A. Dal Corso v.6.5
     Using radial grid of 1095 points,  1 beta functions with:
                l(1) =   1

     atomic species   valence    mass     pseudopotential
        C              4.00    12.01070     C ( 1.00)
        H              1.00     1.00794     H ( 1.00)
        N              5.00    14.00670     N ( 1.00)
        Ni            10.00    58.69340     Ni( 1.00)
        O              6.00    15.99940     O ( 1.00)

     Starting magnetic structure
     atomic species   magnetization
        C            0.000
        H            0.000
        N            0.000
        Ni           0.250
        O            0.000

     No symmetry found

   Cartesian axes

     site n.     atom                  positions (alat units)
         1           C   tau(   1) = (   0.2787122   0.9714307   0.4288486  )
         2           C   tau(   2) = (   0.0379730   0.0311503   0.0183277  )
         3           C   tau(   3) = (   0.3806882   0.0117868   0.4489838  )
         4           C   tau(   4) = (   0.1394042   0.9891499   0.0379124  )
         5           C   tau(   5) = (   0.4400787   0.9715829   0.5343281  )
         6           C   tau(   6) = (   0.1997920   0.0283934   0.1231482  )
         7           C   tau(   7) = (   0.1986011   0.5304580   0.4324635  )
         8           C   tau(   8) = (   0.4580372   0.4720800   0.0229252  )
         9           C   tau(   9) = (   0.2341003   0.6142040   0.4982314  )
        10           C   tau(  10) = (   0.4948422   0.3892302   0.0892369  )
        11           C   tau(  11) = (   0.2384981   0.8904717   0.4955761  )
        12           C   tau(  12) = (  -0.0008282   0.1123917   0.0856467  )
        13           C   tau(  13) = (   0.3947360   0.8906489   0.5977380  )
        14           C   tau(  14) = (   0.1557890   0.1097029   0.1871645  )
        15           C   tau(  15) = (   0.0756247   0.6098498   0.5975737  )
        16           C   tau(  16) = (   0.3367152   0.3921904   0.1884642  )
        17           C   tau(  17) = (   0.0350715   0.5258264   0.5351012  )
        18           C   tau(  18) = (   0.2948780   0.4753867   0.1254988  )
        19           C   tau(  19) = (   0.0981522   0.4849593   0.4519611  )
        20           C   tau(  20) = (   0.3569104   0.5163900   0.0416029  )
        21           C   tau(  21) = (   0.4248178   0.0994604   0.3833638  )
        22           C   tau(  22) = (   0.1639424   0.9010006   0.7933713  )
        23           C   tau(  23) = (   0.0588120   0.3950355   0.3866953  )
        24           C   tau(  24) = (   0.2984059   0.6050320   0.7961934  )
        25           C   tau(  25) = (   0.7787122   0.9714307   0.4288486  )
        26           C   tau(  26) = (   0.5379730   0.0311503   0.0183277  )
        27           C   tau(  27) = (   0.8806882   0.0117868   0.4489838  )
        28           C   tau(  28) = (   0.6394042   0.9891499   0.0379124  )
        29           C   tau(  29) = (   0.9400787   0.9715829   0.5343281  )
        30           C   tau(  30) = (   0.6997920   0.0283934   0.1231482  )
        31           C   tau(  31) = (   0.6986021   0.5304580   0.4324635  )
        32           C   tau(  32) = (   0.9580382   0.4720800   0.0229252  )
        33           C   tau(  33) = (   0.7341003   0.6142040   0.4982314  )
        34           C   tau(  34) = (   0.9948422   0.3892302   0.0892369  )
        35           C   tau(  35) = (   0.7384981   0.8904717   0.4955761  )
        36           C   tau(  36) = (   0.4991718   0.1123917   0.0856467  )
        37           C   tau(  37) = (   0.8947360   0.8906489   0.5977380  )
        38           C   tau(  38) = (   0.6557880   0.1097029   0.1871645  )
        39           C   tau(  39) = (   0.5756247   0.6098498   0.5975737  )
        40           C   tau(  40) = (   0.8367152   0.3921904   0.1884642  )
        41           C   tau(  41) = (   0.5350715   0.5258264   0.5351012  )
        42           C   tau(  42) = (   0.7948780   0.4753867   0.1254988  )
        43           C   tau(  43) = (   0.5981522   0.4849593   0.4519611  )
        44           C   tau(  44) = (   0.8569104   0.5163900   0.0416029  )
        45           C   tau(  45) = (   0.9248178   0.0994604   0.3833638  )
        46           C   tau(  46) = (   0.6639424   0.9010006   0.7933713  )
        47           C   tau(  47) = (   0.5588110   0.3950355   0.3866953  )
        48           C   tau(  48) = (   0.7984059   0.6050320   0.7961934  )
        49           H   tau(  49) = (   0.2290596   1.0009978   0.3640502  )
        50           H   tau(  50) = (   0.4693669   0.0026958   0.7751545  )
        51           H   tau(  51) = (   0.0198054   1.0002267   0.5533467  )
        52           H   tau(  52) = (   0.3118554   0.6514319   0.4868937  )
        53           H   tau(  53) = (   0.0732386   0.3533532   0.0780726  )
        54           H   tau(  54) = (   0.1594426   0.8563401   0.4835457  )
        55           H   tau(  55) = (   0.4206861   0.1479423   0.0738480  )
        56           H   tau(  56) = (   0.4386511   0.8563902   0.6644572  )
        57           H   tau(  57) = (   0.2006191   0.1433067   0.2536997  )
        58           H   tau(  58) = (   0.0290492   0.6438591   0.6626884  )
        59           H   tau(  59) = (   0.2907535   0.3580349   0.2539083  )
        60           H   tau(  60) = (   0.9693669   0.0026958   0.7751545  )
[...]
       102           O   tau( 102) = (   0.8551690   0.6519036   0.7240468  )
       103           O   tau( 103) = (   0.8707656   0.1477170   0.3098797  )
       104           O   tau( 104) = (   0.6091506   0.8535652   0.7199135  )
       105           O   tau( 105) = (   0.9642788   0.3566669   0.3968154  )
       106           O   tau( 106) = (   0.7033039   0.6423280   0.8050417  )
       107           O   tau( 107) = (   0.5200847   0.1353504   0.3952413  )
       108           O   tau( 108) = (   0.7588616   0.8639860   0.8046490  )
       109           O   tau( 109) = (   0.5393362   0.0062279   0.5564670  )
       110           O   tau( 110) = (   0.2987240   0.9924746   0.1445921  )
       111           O   tau( 111) = (   0.2613722   0.4952750   0.3519731  )
       112           O   tau( 112) = (   0.1964508   0.5142019   0.1465894  )
       113           O   tau( 113) = (   0.7186717   0.0061838   0.3466214  )
       114           O   tau( 114) = (   0.7987240   0.9924746   0.1445921  )
       115           O   tau( 115) = (   0.4369778   0.4860649   0.5558090  )
       116           O   tau( 116) = (   0.0024461   0.5076896   0.7638603  )

     number of k points=     1  Marzari-Vanderbilt smearing, width (Ry)=  0.2000
                       cart. coord. in units 2pi/alat
        k(    1) = (   0.0000000   0.0000000   0.0000000), wk =   1.0000000

     Check: negative core charge=   -0.000145

     Initial potential from superposition of free atoms

     starting charge  447.99668, renormalised to  448.00000

[...]
     atom:   52    charge:    0.3838    magn:   -0.0007    constr:    0.0000
     atom:   53    charge:    0.3213    magn:   -0.0006    constr:    0.0000
     atom:   54    charge:    0.3531    magn:   -0.0009    constr:    0.0000
     atom:   55    charge:    0.3760    magn:   -0.0009    constr:    0.0000
     atom:   56    charge:    0.3980    magn:   -0.0007    constr:    0.0000
     atom:   57    charge:    0.4389    magn:   -0.0007    constr:    0.0000
     atom:   58    charge:    0.2341    magn:   -0.0002    constr:    0.0000
     atom:   59    charge:    0.2426    magn:   -0.0001    constr:    0.0000
     atom:   60    charge:    0.3239    magn:   -0.0008    constr:    0.0000
[...]
     atom:  102    charge:    1.9123    magn:    0.0374    constr:    0.0000
     atom:  103    charge:    1.7423    magn:    0.0280    constr:    0.0000
     atom:  104    charge:    1.8776    magn:    0.0300    constr:    0.0000
     atom:  105    charge:    1.9358    magn:    0.0360    constr:    0.0000
     atom:  106    charge:    1.8421    magn:    0.0397    constr:    0.0000
     atom:  107    charge:    1.9354    magn:    0.0330    constr:    0.0000
     atom:  108    charge:    1.9455    magn:    0.0344    constr:    0.0000
     atom:  109    charge:    1.7256    magn:    0.0084    constr:    0.0000
     atom:  110    charge:    1.8043    magn:    0.0097    constr:    0.0000
     atom:  111    charge:    1.7540    magn:    0.0084    constr:    0.0000
     atom:  112    charge:    1.3219    magn:    0.0080    constr:    0.0000
     atom:  113    charge:    1.6487    magn:    0.0080    constr:    0.0000
     atom:  114    charge:    1.6226    magn:    0.0094    constr:    0.0000
     atom:  115    charge:    1.7796    magn:    0.0079    constr:    0.0000
     atom:  116    charge:    1.9038    magn:    0.0096    constr:    0.0000

     End of self-consistent calculation

 ------ SPIN UP ------------

[...]

 ------ SPIN DOWN ----------

          k = 0.0000 0.0000 0.0000 ( 91663 PWs)   bands (ev):

   -22.0365 -22.0070 -21.9414 -21.9336 -21.8851 -21.8737 -21.8509 -21.8281
   -21.7452 -21.7025 -21.6751 -21.6515 -21.6402 -21.6282 -21.5950 -21.5691
   -19.0403 -19.0287 -19.0210 -19.0092 -18.9965 -18.9860 -18.9732 -18.9684
   -18.9554 -18.9231 -18.9062 -18.8922 -18.8778 -18.8709 -18.8552 -18.8448
   -15.3083 -15.2685 -15.2606 -15.2408 -15.2286 -15.2191 -15.2154 -15.1937
   -13.9820 -13.9719 -13.9497 -13.9354 -13.9260 -13.9079 -13.8810 -13.8378
   -11.7226 -11.6875 -11.6677 -11.6435 -11.6199 -11.5972 -11.5851 -11.5646
   -11.1648 -11.1530 -11.1481 -11.1302 -11.1178 -11.0927 -11.0849 -11.0042
    -9.4801  -9.3679  -9.2878  -9.2321  -9.1643  -9.1261  -9.1196  -9.0818
    -9.0572  -9.0242  -9.0018  -8.9936  -8.9565  -8.9487  -8.9467  -8.8908
    -7.9678  -7.6557  -7.5842  -7.5575  -7.5362  -7.5235  -7.5081  -7.4698
    -7.4493  -7.4167  -7.3527  -7.3348  -7.1277  -7.0908  -7.0236  -6.9155
    -6.6830  -6.6073  -6.5303  -6.5020  -6.4814  -6.4293  -6.4040  -6.3975
    -6.3255  -6.2786  -6.2444  -6.2073  -6.1839  -6.1297  -6.0999  -6.0739
    -6.0551  -6.0524  -6.0303  -6.0095  -5.9683  -5.9555  -5.9284  -5.9144
    -5.8859  -5.8682  -5.8426  -5.7941  -5.7795  -5.7456  -5.7164  -5.6825
    -5.5723  -5.4660  -5.4106  -5.3529  -5.3275  -5.2881  -5.0913  -4.9682
    -4.7402  -4.7223  -4.7063  -4.6933  -4.6616  -4.6375  -4.6162  -4.5960
    -4.5605  -4.5402  -4.5213  -4.4759  -4.4431  -4.4195  -4.3665  -4.3519
    -4.3229  -4.2798  -4.2164  -4.2077  -4.1657  -4.1109  -4.0472  -4.0347
    -3.9625  -3.7710  -3.7419  -3.5681  -3.3817  -3.3263  -3.2571  -3.2248
    -3.1055  -2.9608  -2.9366  -2.7889  -2.7735  -2.6630  -2.6259  -2.5852
    -2.5257  -2.4452  -2.4394  -2.4180  -2.3708  -2.3454  -2.3329  -2.2950
    -2.2664  -2.1901  -2.1533  -2.0901  -2.0624  -2.0301  -1.9863  -1.9697
    -1.9474  -1.8818  -1.8731  -1.8473  -1.8294  -1.7346  -1.6341  -1.5627
    -1.2766  -1.1797  -1.1677  -1.1289  -1.0520  -1.0437  -1.0417  -1.0321
    -0.9871  -0.9816  -0.9780  -0.9407  -0.9325  -0.8976  -0.8710  -0.8472
    -0.8044  -0.7986  -0.7477  -0.5503   0.6748   0.7221   0.7706   0.8110
     0.8888   0.9742   1.0264   1.0333   2.1199   2.1770   2.1929   2.1991
     2.2244   2.2786   2.3045   2.3397   2.7923   3.2953   3.4152   3.4475
     3.5233   3.5990   3.6528   3.6871   3.7243   3.7566   3.7852   3.8331
     4.1876   4.3549   4.3906   4.5001   4.5800   4.6148   4.6939   4.7453
     4.7638   4.8199   4.8256   4.8369   4.9109   4.9967   5.1297   5.1397
     5.3415   5.4122   5.5263   5.7912   6.0537   6.0972   6.1282   6.1794
     6.2866   6.3467

     the spin up/dw Fermi energies are     0.5177    0.2148 ev

!    total energy              =   -1902.68468777 Ry
     Harris-Foulkes estimate   =   -1902.68468794 Ry
     estimated scf accuracy    <          2.9E-09 Ry

     The total energy is the sum of the following terms:

     one-electron contribution =   -2662.43894319 Ry
     hartree contribution      =    1501.28744595 Ry
     xc contribution           =    -576.04411441 Ry
     ewald contribution        =    -167.72239012 Ry
     Dispersion Correction     =      -0.50182391 Ry
     smearing contrib. (-TS)   =       2.73513791 Ry

     total magnetization       =     8.00 Bohr mag/cell
     absolute magnetization    =     8.31 Bohr mag/cell

     convergence has been achieved in  11 iterations

     Forces acting on atoms (cartesian axes, Ry/au):

     atom    1 type  1   force =     0.00043832   -0.00001350    0.00018786
     atom    2 type  1   force =     0.00018167    0.00033080   -0.00010591
     atom    3 type  1   force =     0.00032052   -0.00045808   -0.00005203
     atom    4 type  1   force =     0.00023328   -0.00029625    0.00004851
     atom    5 type  1   force =    -0.00014191   -0.00024915    0.00009744
     atom    6 type  1   force =    -0.00020672    0.00020208   -0.00025170
     atom    7 type  1   force =    -0.00043013    0.00015157    0.00038407
     atom    8 type  1   force =     0.00044819    0.00000229    0.00026511
     atom    9 type  1   force =    -0.00059179    0.00031538   -0.00030103
     atom   10 type  1   force =    -0.00079937   -0.00054421   -0.00055167
     atom   11 type  1   force =     0.00036984    0.00035969   -0.00034573
     atom   12 type  1   force =     0.00014301   -0.00019188   -0.00032405
     atom   13 type  1   force =    -0.00005806   -0.00069868   -0.00033189
     atom   14 type  1   force =     0.00033904    0.00006501    0.00025016
     atom   15 type  1   force =     0.00018216    0.00048280    0.00018025
     atom   16 type  1   force =    -0.00029566    0.00011514   -0.00038764
     atom   17 type  1   force =    -0.00065937    0.00013015    0.00030090
     atom   18 type  1   force =    -0.00008716    0.00019403    0.00008235
     atom   19 type  1   force =     0.00010715   -0.00006480    0.00013176
     atom   20 type  1   force =     0.00005422    0.00020328   -0.00009667
     atom   21 type  1   force =     0.00012021   -0.00054115   -0.00002099
     atom   22 type  1   force =    -0.00002237   -0.00025174   -0.00018709
     atom   23 type  1   force =    -0.00054489    0.00024826    0.00000690
     atom   24 type  1   force =    -0.00075343   -0.00020575   -0.00066612
     atom   25 type  1   force =    -0.00003308    0.00010351   -0.00021011
     atom   26 type  1   force =     0.00016955    0.00038317    0.00026478
     atom   27 type  1   force =     0.00020155    0.00028357    0.00015159
     atom   28 type  1   force =    -0.00033476    0.00002968    0.00003077
     atom   29 type  1   force =    -0.00004164   -0.00021851   -0.00057712
     atom   30 type  1   force =    -0.00017010    0.00025958   -0.00002029
     atom   31 type  1   force =     0.00008495   -0.00011093   -0.00004867
     atom   32 type  1   force =    -0.00000175   -0.00011169   -0.00012288
     atom   33 type  1   force =    -0.00018591    0.00011356   -0.00015839
     atom   34 type  1   force =     0.00006630   -0.00031489    0.00018089
     atom   35 type  1   force =     0.00045860    0.00032883   -0.00023745
     atom   36 type  1   force =     0.00060430    0.00006357   -0.00050904
     atom   37 type  1   force =     0.00032748   -0.00013032   -0.00034661
     atom   38 type  1   force =     0.00005802   -0.00028920    0.00011095
     atom   39 type  1   force =    -0.00005075    0.00021071   -0.00022579
     atom   40 type  1   force =    -0.00022088   -0.00024210    0.00000107
     atom   41 type  1   force =     0.00040171    0.00001692    0.00020690
     atom   42 type  1   force =    -0.00007844    0.00022950   -0.00029686
     atom   43 type  1   force =    -0.00007571    0.00035513    0.00007465
     atom   44 type  1   force =     0.00010480    0.00009634   -0.00016008
     atom   45 type  1   force =    -0.00012433    0.00001452    0.00003996
     atom   46 type  1   force =    -0.00005353    0.00024043   -0.00001355
     atom   47 type  1   force =    -0.00009543    0.00036613   -0.00029400
     atom   48 type  1   force =    -0.00018865    0.00021246   -0.00013767
     atom   49 type  2   force =    -0.00013902    0.00002689    0.00008348
     atom   50 type  2   force =     0.00017283    0.00007983   -0.00011611
     atom   51 type  2   force =     0.00030468    0.00009507   -0.00019525
     atom   52 type  2   force =    -0.00052002   -0.00007258    0.00051297
     atom   53 type  2   force =     0.00040181   -0.00006161   -0.00004037
     atom   54 type  2   force =     0.00015620    0.00003287    0.00024098
     atom   55 type  2   force =     0.00005858    0.00001781    0.00003580
     atom   56 type  2   force =    -0.00019390   -0.00016359    0.00019848
     atom   57 type  2   force =     0.00008323    0.00039300    0.00038035
     atom   58 type  2   force =     0.00029547   -0.00053317   -0.00006354
     atom   59 type  2   force =     0.00005355    0.00008121    0.00053628
     atom   60 type  2   force =     0.00012916   -0.00012606   -0.00003759
[...]
     atom  102 type  5   force =     0.00036072    0.00001503    0.00001700
     atom  103 type  5   force =     0.00002604   -0.00068346   -0.00005057
     atom  104 type  5   force =     0.00013835    0.00001100    0.00000918
     atom  105 type  5   force =     0.00037597    0.00040116    0.00044714
     atom  106 type  5   force =    -0.00038084   -0.00014190    0.00009419
     atom  107 type  5   force =     0.00011350   -0.00028339    0.00003227
     atom  108 type  5   force =     0.00000700   -0.00009546    0.00008832
     atom  109 type  5   force =    -0.00020275    0.00001525    0.00044366
     atom  110 type  5   force =     0.00004687   -0.00005483    0.00055640
     atom  111 type  5   force =     0.00021781    0.00030842   -0.00004883
     atom  112 type  5   force =    -0.00003240    0.00014755    0.00019413
     atom  113 type  5   force =    -0.00007049    0.00015163   -0.00032293
     atom  114 type  5   force =    -0.00058953    0.00020157    0.00020094
     atom  115 type  5   force =    -0.00002937    0.00006176    0.00026837
     atom  116 type  5   force =     0.00007846   -0.00000590   -0.00007258

     Total force =     0.004989     Total SCF correction =     0.000132

     bfgs converged in  66 scf cycles and  65 bfgs steps
     (criteria: energy <  1.0E-04 Ry, force <  1.0E-03 Ry/Bohr)

     End of BFGS Geometry Optimization

     Final energy   =   -1902.6846877733 Ry
Begin final coordinates

ATOMIC_POSITIONS (crystal)
C             0.2896238223        0.9782685139        0.5315987250
C             0.0494007688        0.0317111653        0.0248225751
C             0.3953274088        0.0126328793        0.5497498922
C             0.1504836113        0.9892779748        0.0526585935
C             0.4578311318        0.9630625157        0.6508661537
C             0.2114884663        0.0343244520        0.1579073485
C             0.2075781322        0.5339770342        0.5261052767
C             0.4584312517        0.4771718173        0.0321380356
C             0.2414499334        0.6188632643        0.6083807666
C             0.4989044267        0.3939499594        0.1087336597
C             0.2485857362        0.8969247601        0.6087779749
C             0.0102192480        0.1156259755        0.0993615703
C             0.4100054750        0.8815598798        0.7265183619
C             0.1647344135        0.1185048375        0.2312747053
C             0.0742582574        0.6279013827        0.7054578894
C             0.3352965007        0.3726328407        0.2123291440
C             0.0346834477        0.5456464925        0.6253366972
C             0.2893407931        0.4587708399        0.1403569797
C             0.1003057282        0.4968184035        0.5346695822
C             0.3526805361        0.5109563849        0.0455254259
C             0.4378314559        0.0971046718        0.4670533846
C             0.1905187141        0.9010140672        0.9740859585
C             0.0613084968        0.4041345105        0.4607037607
C             0.3114853929        0.5990611317        0.9655352835
C             0.7928571865        0.9658541654        0.5292439162
C             0.5441742682        0.0288074346        0.0229555872
C             0.9001786513        0.0028042988        0.5444623227
C             0.6484973500        0.9918635512        0.0438125333
C             0.9631066081        0.9581913398        0.6446197495
C             0.7123826215        0.0420537591        0.1432893667
C             0.7049098770        0.5216017627        0.5358427717
C             0.9519249410        0.4643455221        0.0280227580
C             0.7439286777        0.6075249750        0.6092399437
C             0.9851681368        0.3780535792        0.1084682017
C             0.7584377271        0.8809570724        0.6087718049
C             0.5048238844        0.1123023421        0.0980074684
C             0.9214740008        0.8786519890        0.7246730544
C             0.6667402052        0.1280803132        0.2148242415
C             0.5849222285        0.6193381441        0.7239435774
C             0.8257145499        0.3817114884        0.2221843512
C             0.5398402626        0.5316895845        0.6538430464
C             0.7855353657        0.4641229179        0.1429813084
C             0.6018359385        0.4823105212        0.5553751797
C             0.8477489740        0.5073100608        0.0447630691
C             0.9417541775        0.0905330496        0.4662583834
C             0.6882063632        0.9029361488        0.9666305293
C             0.5615014274        0.3943688840        0.4737503866
C             0.8080936962        0.5980982460        0.9678310432
H             0.2377962743        1.0146227110        0.4597795917
H             0.4913645939       -0.0082180147        0.9526814994
H             0.0425676609        0.9872348323        0.6641600370
H             0.3211936908        0.6505584206        0.6012359983
H             0.0619847554        0.3416776994        0.0945996852
H             0.1681543840        0.8680479540        0.5964410441
H             0.4250139907        0.1423798481        0.0846548781
H             0.4542841890        0.8437907770        0.8047271789
H             0.2066960467        0.1522080015        0.3138274472
H             0.0270547129        0.6638348513        0.7791284829
H             0.2899176288        0.3318258341        0.2846836399
H             1.0001094495       -0.0001639995        0.9473450458
[...]
O             0.8658117517        0.6468321623        0.8834280481
O             0.8849266909        0.1350627843        0.3725358849
O             0.6282975116        0.8605313794        0.8734617153
O             0.9707033074        0.3604993377        0.4836019036
O             0.7126823564        0.6346325064        0.9801712220
O             0.5329373666        0.1337865053        0.4768693076
O             0.7805870472        0.8609061036        0.9814923967
O             0.5586678457       -0.0081717759        0.6751956355
O             0.3078152737        0.9974006616        0.1889477299
O             0.2744792964        0.4884374988        0.4442239803
O             0.1899712839        0.4895450731        0.1633576653
O             0.7255639902        0.0109494850        0.4440501144
O             0.8098677225        1.0085110458        0.1717036985
O             0.4422277609        0.4969536865        0.6821115148
O             0.0164295350        0.5043612140        0.9396014103
End final coordinates

     Writing output data file /nfs/hpc/share/gantzlen/NiPyC2_relax_sc211_meta_functionalized_OH_vdw-df2_relax.save/

     General routines

     Parallel routines

   This run was terminated on:   8:23:54  30Jul2020

   JOB DONE.
QE finished Thu Jul 30 08:23:54 PDT 2020