     Program PWSCF v.6.5 starts on 29Jul2020 at 11:44:55

     K-points division:     npool     =       2
     R & G space division:  proc/nbgrp/npool/nimage =       8
     Reading input from ./QE_input_scripts/pw.NiPyC2_relax_sc211_meta_functionalized_Cl_vdw-df2_relax.in
Warning: card &CELL ignored
Warning: card    CELL_DYNAMICS = 'BFGS' ignored
Warning: card    CELL_DOFREE = 'XYZ' ignored
Warning: card / ignored

     Current dimensions of program PWSCF are:
     Max number of different atomic species (ntypx) = 10
     Max number of k-points (npk) =  40000
     Max angular momentum in pseudopotentials (lmaxx) =  3

     IMPORTANT: XC functional enforced from input :
     Exchange-correlation= VDW-DF2
                           (   1   4  13   0   2   0   0)
     Any further DFT definition will be discarded
     Please, verify this is what you really want

     Parameters for Dispersion (Grimme-D2) Correction:
       atom      VdW radius       C_6

        C          2.744         60.710
        Cl         3.097        175.885
        H          1.892          4.857
        N          2.640         42.670
        Ni         2.952        374.666
        O          2.536         24.284

     gamma-point specific algorithms are used

     Subspace diagonalization in iterative solution of the eigenvalue problem:
     a serial algorithm will be used

     bravais-lattice index     =            0
     lattice parameter (alat)  =      23.6322  a.u.
     unit-cell volume          =   10858.6228 (a.u.)^3
     number of atoms/cell      =          108
     number of atomic types    =            6
     number of electrons       =       448.00 (up: 228.00, down: 220.00)
     number of Kohn-Sham states=          274
     kinetic-energy cutoff     =     100.0000  Ry
     charge density cutoff     =     400.0000  Ry
     convergence threshold     =      1.0E-06
     mixing beta               =       0.7000
     number of iterations used =            8  local-TF  mixing
     Exchange-correlation= VDW-DF2
                           (   1   4  13   0   2   0   0)
     nstep                     =          200

     celldm(1)=  23.632159  celldm(2)=   0.000000  celldm(3)=   0.000000
     celldm(4)=   0.000000  celldm(5)=   0.000000  celldm(6)=   0.000000

     crystal axes: (cart. coord. in units of alat)
               a(1) = (   1.000000   0.000000   0.000000 )
               a(2) = (   0.000000   1.001423   0.000000 )
               a(3) = (  -0.018199   0.000000   0.821574 )

     reciprocal axes: (cart. coord. in units 2 pi/alat)
               b(1) = (  1.000000  0.000000  0.022152 )
               b(2) = (  0.000000  0.998579  0.000000 )
               b(3) = (  0.000000  0.000000  1.217175 )

     PseudoPot. # 1 for C  read from file:
     ./pseudo/C.pbesol-nc.UPF
     MD5 check sum: ce26087537ded160c8d400e183a8bf42
     Pseudo is Norm-conserving, Zval =  4.0
     Generated using "atomic" code by A. Dal Corso v.6.5
     Using radial grid of 1073 points,  1 beta functions with:
                l(1) =   1

     PseudoPot. # 2 for Cl read from file:
     ./pseudo/Cl.pbesol-n-nc.UPF
     MD5 check sum: 7a3420c4b1251c4f435754b8525b54b2
     Pseudo is Norm-conserving + core correction, Zval =  7.0
     Generated using "atomic" code by A. Dal Corso v.6.5
     Using radial grid of 1157 points,  2 beta functions with:
                l(1) =   0
                l(2) =   1

     PseudoPot. # 3 for H  read from file:
     ./pseudo/H.pbesol-n-nc.UPF
     MD5 check sum: 7995ef24074557c85b430109caaacc09
     Pseudo is Norm-conserving, Zval =  1.0
     Generated using "atomic" code by A. Dal Corso v.6.5
     Using radial grid of  929 points,  0 beta functions with:

     PseudoPot. # 4 for N  read from file:
     ./pseudo/N.pbesol-nc.UPF
     MD5 check sum: e18cc5e4b8a5600c1a19b30c2cab1ca0
     Pseudo is Norm-conserving, Zval =  5.0
     Generated using "atomic" code by A. Dal Corso v.6.5
     Using radial grid of 1085 points,  1 beta functions with:
                l(1) =   1

     PseudoPot. # 5 for Ni read from file:
     ./pseudo/Ni.pbesol-n-nc.UPF
     MD5 check sum: 623411631e0c2eb7c0b2b9815547d2d9
     Pseudo is Norm-conserving + core correction, Zval = 10.0
     Generated using "atomic" code by A. Dal Corso v.6.5
     Using radial grid of 1195 points,  2 beta functions with:
                l(1) =   1
                l(2) =   2

     PseudoPot. # 6 for O  read from file:
     ./pseudo/O.pbesol-nc.UPF
     MD5 check sum: 73d10e7e91dbfcbe8a7e362101007f84
     Pseudo is Norm-conserving, Zval =  6.0
     Generated using "atomic" code by A. Dal Corso v.6.5
     Using radial grid of 1095 points,  1 beta functions with:
                l(1) =   1

     atomic species   valence    mass     pseudopotential
        C              4.00    12.01070     C ( 1.00)
        Cl             7.00    35.45300     Cl( 1.00)
        H              1.00     1.00794     H ( 1.00)
        N              5.00    14.00670     N ( 1.00)
        Ni            10.00    58.69340     Ni( 1.00)
        O              6.00    15.99940     O ( 1.00)

     Starting magnetic structure
     atomic species   magnetization
        C            0.000
        Cl           0.000
        H            0.000
        N            0.000
        Ni           0.250
        O            0.000

     No symmetry found

   Cartesian axes

     site n.     atom                  positions (alat units)
         1           C   tau(   1) = (   0.2787122   0.9714307   0.4288486  )
         2           C   tau(   2) = (   0.0379730   0.0311503   0.0183277  )
         3           C   tau(   3) = (   0.3806882   0.0117868   0.4489838  )
         4           C   tau(   4) = (   0.1394042   0.9891499   0.0379124  )
         5           C   tau(   5) = (   0.4400787   0.9715829   0.5343281  )
         6           C   tau(   6) = (   0.1997920   0.0283934   0.1231482  )
         7           C   tau(   7) = (   0.1986011   0.5304580   0.4324635  )
         8           C   tau(   8) = (   0.4580372   0.4720800   0.0229252  )
         9           C   tau(   9) = (   0.2341003   0.6142040   0.4982314  )
        10           C   tau(  10) = (   0.4948422   0.3892302   0.0892369  )
        11           C   tau(  11) = (   0.2384981   0.8904717   0.4955761  )
        12           C   tau(  12) = (  -0.0008282   0.1123917   0.0856467  )
        13           C   tau(  13) = (   0.3947360   0.8906489   0.5977380  )
        14           C   tau(  14) = (   0.1557890   0.1097029   0.1871645  )
        15           C   tau(  15) = (   0.0756247   0.6098498   0.5975737  )
        16           C   tau(  16) = (   0.3367152   0.3921904   0.1884642  )
        17           C   tau(  17) = (   0.0350715   0.5258264   0.5351012  )
        18           C   tau(  18) = (   0.2948780   0.4753867   0.1254988  )
        19           C   tau(  19) = (   0.0981522   0.4849593   0.4519611  )
        20           C   tau(  20) = (   0.3569104   0.5163900   0.0416029  )
        21           C   tau(  21) = (   0.4248178   0.0994604   0.3833638  )
        22           C   tau(  22) = (   0.1639424   0.9010006   0.7933713  )
        23           C   tau(  23) = (   0.0588120   0.3950355   0.3866953  )
        24           C   tau(  24) = (   0.2984059   0.6050320   0.7961934  )
        25           C   tau(  25) = (   0.7787122   0.9714307   0.4288486  )
        26           C   tau(  26) = (   0.5379730   0.0311503   0.0183277  )
        27           C   tau(  27) = (   0.8806882   0.0117868   0.4489838  )
        28           C   tau(  28) = (   0.6394042   0.9891499   0.0379124  )
        29           C   tau(  29) = (   0.9400787   0.9715829   0.5343281  )
        30           C   tau(  30) = (   0.6997920   0.0283934   0.1231482  )
        31           C   tau(  31) = (   0.6986021   0.5304580   0.4324635  )
        32           C   tau(  32) = (   0.9580382   0.4720800   0.0229252  )
        33           C   tau(  33) = (   0.7341003   0.6142040   0.4982314  )
        34           C   tau(  34) = (   0.9948422   0.3892302   0.0892369  )
        35           C   tau(  35) = (   0.7384981   0.8904717   0.4955761  )
        36           C   tau(  36) = (   0.4991718   0.1123917   0.0856467  )
        37           C   tau(  37) = (   0.8947360   0.8906489   0.5977380  )
        38           C   tau(  38) = (   0.6557880   0.1097029   0.1871645  )
        39           C   tau(  39) = (   0.5756247   0.6098498   0.5975737  )
        40           C   tau(  40) = (   0.8367152   0.3921904   0.1884642  )
        41           C   tau(  41) = (   0.5350715   0.5258264   0.5351012  )
        42           C   tau(  42) = (   0.7948780   0.4753867   0.1254988  )
        43           C   tau(  43) = (   0.5981522   0.4849593   0.4519611  )
        44           C   tau(  44) = (   0.8569104   0.5163900   0.0416029  )
        45           C   tau(  45) = (   0.9248178   0.0994604   0.3833638  )
        46           C   tau(  46) = (   0.6639424   0.9010006   0.7933713  )
        47           C   tau(  47) = (   0.5588110   0.3950355   0.3866953  )
        48           C   tau(  48) = (   0.7984059   0.6050320   0.7961934  )
        49           Cl  tau(  49) = (   0.1958065   0.0131807   0.3231547  )
        50           Cl  tau(  50) = (   0.3293560   0.9850801   0.1559709  )
        51           Cl  tau(  51) = (   0.9063869   0.4780425   0.5668665  )
        52           Cl  tau(  52) = (   0.5259391   0.5143641   0.7409261  )
        53           Cl  tau(  53) = (   0.6958065   0.0131807   0.3231547  )
        54           Cl  tau(  54) = (   0.8293549   0.9850801   0.1559726  )
        55           Cl  tau(  55) = (   0.7848928   0.4887937   0.3290101  )
        56           Cl  tau(  56) = (   0.6658457   0.5219699   0.1577899  )
        57           H   tau(  57) = (   0.4693669   0.0026958   0.7751545  )
        58           H   tau(  58) = (   0.0198054   1.0002267   0.5533467  )
        59           H   tau(  59) = (   0.2505234   0.5016080   0.3691185  )
        60           H   tau(  60) = (  -0.0086584   0.5011092   0.7809458  )
[...]
        94           O   tau(  94) = (   0.3551690   0.6519036   0.7240468  )
        95           O   tau(  95) = (   0.3707656   0.1477170   0.3098797  )
        96           O   tau(  96) = (   0.1091506   0.8535652   0.7199135  )
        97           O   tau(  97) = (   0.4642788   0.3566669   0.3968154  )
        98           O   tau(  98) = (   0.2033039   0.6423280   0.8050417  )
        99           O   tau(  99) = (   0.0200847   0.1353504   0.3952413  )
       100           O   tau( 100) = (   0.2588616   0.8639860   0.8046490  )
       101           O   tau( 101) = (   0.6158110   0.3481839   0.3145586  )
       102           O   tau( 102) = (   0.8551690   0.6519036   0.7240468  )
       103           O   tau( 103) = (   0.8707656   0.1477170   0.3098797  )
       104           O   tau( 104) = (   0.6091506   0.8535652   0.7199135  )
       105           O   tau( 105) = (   0.9642788   0.3566669   0.3968154  )
       106           O   tau( 106) = (   0.7033039   0.6423280   0.8050417  )
[...]
     atom:   52    charge:    1.2574    magn:    0.0142    constr:    0.0000
     atom:   53    charge:    1.6360    magn:    0.0172    constr:    0.0000
     atom:   54    charge:    3.0851    magn:    0.0292    constr:    0.0000
     atom:   55    charge:    1.7867    magn:    0.0188    constr:    0.0000
     atom:   56    charge:    2.5814    magn:    0.0248    constr:    0.0000
     atom:   57    charge:    0.4423    magn:   -0.0009    constr:    0.0000
     atom:   58    charge:    0.4784    magn:   -0.0009    constr:    0.0000
     atom:   59    charge:    0.4903    magn:   -0.0010    constr:    0.0000
     atom:   60    charge:    0.1338    magn:    0.0003    constr:    0.0000
[...]
     atom:   94    charge:    3.1462    magn:    0.0495    constr:    0.0000
     atom:   95    charge:    2.7067    magn:    0.0468    constr:    0.0000
     atom:   96    charge:    3.3020    magn:    0.0496    constr:    0.0000
     atom:   97    charge:    2.5509    magn:    0.0470    constr:    0.0000
     atom:   98    charge:    3.2125    magn:    0.0529    constr:    0.0000
     atom:   99    charge:    3.2073    magn:    0.0528    constr:    0.0000
     atom:  100    charge:    3.2666    magn:    0.0505    constr:    0.0000
     atom:  101    charge:    3.1814    magn:    0.0543    constr:    0.0000
     atom:  102    charge:    3.0194    magn:    0.0493    constr:    0.0000
     atom:  103    charge:    2.6907    magn:    0.0443    constr:    0.0000
     atom:  104    charge:    3.2271    magn:    0.0489    constr:    0.0000
     atom:  105    charge:    2.8908    magn:    0.0457    constr:    0.0000
     atom:  106    charge:    3.2318    magn:    0.0516    constr:    0.0000
     atom:  107    charge:    2.3808    magn:    0.0413    constr:    0.0000
     atom:  108    charge:    3.2613    magn:    0.0497    constr:    0.0000

     End of self-consistent calculation

 ------ SPIN UP ------------

[...]

 ------ SPIN DOWN ----------

          k = 0.0000 0.0000 0.0000 ( 91663 PWs)   bands (ev):

   -21.4463 -21.3801 -21.3768 -21.3403 -21.2829 -21.2606 -21.2345 -21.2052
   -18.6673 -18.6369 -18.5920 -18.5671 -18.5588 -18.5377 -18.5219 -18.5188
   -18.5028 -18.4935 -18.4807 -18.4666 -18.4550 -18.4477 -18.4141 -18.3880
   -16.7449 -16.7209 -16.6687 -16.5653 -16.5281 -16.5013 -16.4818 -16.4776
   -14.6295 -14.6149 -14.5981 -14.5826 -14.5696 -14.5565 -14.5185 -14.5116
   -13.3374 -13.2752 -13.2622 -13.2186 -13.1918 -13.1789 -13.1331 -13.0963
   -11.2145 -11.1755 -11.1407 -11.1141 -11.0931 -11.0691 -11.0610 -11.0409
   -10.3141 -10.2956 -10.2779 -10.2135 -10.2066 -10.1883 -10.1769 -10.1302
    -9.0007  -8.7781  -8.7270  -8.6610  -8.6153  -8.5952  -8.5170  -8.4670
    -7.5639  -7.3692  -7.2780  -7.2514  -7.2250  -7.2037  -7.1588  -7.1498
    -7.1200  -7.1111  -7.0241  -6.8728  -6.8331  -6.7858  -6.7208  -6.6715
    -6.4818  -6.4054  -6.3765  -6.3030  -6.2776  -6.2502  -6.1984  -6.1267
    -6.0902  -6.0513  -5.9739  -5.9501  -5.9270  -5.9017  -5.8209  -5.7877
    -5.7310  -5.6988  -5.6613  -5.6524  -5.6253  -5.5507  -5.5330  -5.5222
    -5.4791  -5.4468  -5.4311  -5.3832  -5.3555  -5.3059  -5.2703  -5.2511
    -5.2119  -5.1891  -5.1835  -5.1632  -5.1389  -5.1059  -5.0736  -5.0557
    -4.8818  -4.7912  -4.6994  -4.6483  -4.6390  -4.5417  -4.5167  -4.2828
    -4.0676  -4.0174  -3.9920  -3.9721  -3.9481  -3.8989  -3.8710  -3.8069
    -3.7873  -3.6360  -3.5977  -3.4921  -3.4136  -3.3237  -3.2905  -3.2573
    -3.2431  -3.1584  -3.1121  -3.0277  -2.9808  -2.9633  -2.9281  -2.8578
    -2.8066  -2.7530  -2.6877  -2.6832  -2.6136  -2.5653  -2.4986  -2.3962
    -2.2775  -2.2364  -2.1569  -2.0862  -2.0587  -1.9898  -1.9723  -1.9476
    -1.9174  -1.8788  -1.8726  -1.8112  -1.7857  -1.7650  -1.7212  -1.6768
    -1.6149  -1.5981  -1.5598  -1.4946  -1.4678  -1.4284  -1.4032  -1.3844
    -1.3530  -1.2873  -1.2266  -1.1984  -1.1082  -1.0808  -1.0137  -0.9891
    -0.8738  -0.8285  -0.7641  -0.6955  -0.6494  -0.6241  -0.6130  -0.5918
    -0.5606  -0.5433  -0.5027  -0.4890  -0.4529  -0.4148  -0.3920  -0.3582
    -0.3278  -0.3105  -0.2112  -0.1845   1.0317   1.0783   1.1125   1.1938
     1.3006   1.4070   1.4447   1.5511   2.5258   2.5800   2.6134   2.6442
     2.6962   2.7149   2.7423   2.7574   3.4166   3.4807   3.6712   3.6915
     3.7302   3.8397   3.8690   3.9313   4.0059   4.0485   4.1437   4.2450
     4.8268   4.8492   4.9023   4.9687   5.0469   5.0761   5.1427   5.1985
     5.2610   5.2829   5.2943   5.3430   5.3549   5.3961   5.5264   5.6120
     5.6622   5.7354   5.8091   5.8811   5.9067   5.9641   6.0818   6.3106
     6.4557   6.4988

     the spin up/dw Fermi energies are     0.9605    0.6914 ev

!    total energy              =   -1906.58501666 Ry
     Harris-Foulkes estimate   =   -1906.58501696 Ry
     estimated scf accuracy    <          7.5E-09 Ry

     The total energy is the sum of the following terms:

     one-electron contribution =   -2353.77375377 Ry
     hartree contribution      =    1351.47187571 Ry
     xc contribution           =    -593.23608954 Ry
     ewald contribution        =    -313.36133294 Ry
     Dispersion Correction     =      -0.51702207 Ry
     smearing contrib. (-TS)   =       2.83130595 Ry

     total magnetization       =     8.00 Bohr mag/cell
     absolute magnetization    =     8.25 Bohr mag/cell

     convergence has been achieved in  10 iterations

     Forces acting on atoms (cartesian axes, Ry/au):

     atom    1 type  1   force =     0.00002488   -0.00005998    0.00058666
     atom    2 type  1   force =     0.00022101   -0.00019076   -0.00000632
     atom    3 type  1   force =     0.00030020    0.00008638    0.00036204
     atom    4 type  1   force =     0.00001723   -0.00015195    0.00007925
     atom    5 type  1   force =     0.00008798   -0.00008973    0.00016168
     atom    6 type  1   force =    -0.00021817   -0.00008488    0.00018403
     atom    7 type  1   force =    -0.00011253   -0.00003798   -0.00062625
     atom    8 type  1   force =    -0.00032282    0.00000401    0.00021399
     atom    9 type  1   force =     0.00032123   -0.00033690    0.00041317
     atom   10 type  1   force =     0.00076826   -0.00069152   -0.00025086
     atom   11 type  1   force =     0.00010502   -0.00014390   -0.00014529
     atom   12 type  1   force =     0.00010648    0.00013486   -0.00008649
     atom   13 type  1   force =     0.00007967    0.00018981    0.00020583
     atom   14 type  1   force =    -0.00036852    0.00003828   -0.00037109
     atom   15 type  1   force =     0.00032673   -0.00050525   -0.00022640
     atom   16 type  1   force =    -0.00018328    0.00025587    0.00070115
     atom   17 type  1   force =     0.00019011   -0.00012007   -0.00027228
     atom   18 type  1   force =    -0.00013162    0.00005885   -0.00017938
     atom   19 type  1   force =     0.00006705   -0.00009051   -0.00032742
     atom   20 type  1   force =    -0.00010558   -0.00000425    0.00061518
     atom   21 type  1   force =    -0.00014989   -0.00002839    0.00040112
     atom   22 type  1   force =    -0.00036297   -0.00042601   -0.00001910
     atom   23 type  1   force =    -0.00018226   -0.00050176    0.00028328
     atom   24 type  1   force =    -0.00001597    0.00001116    0.00015584
     atom   25 type  1   force =    -0.00026496    0.00017164   -0.00007770
     atom   26 type  1   force =     0.00034281    0.00024077    0.00000349
     atom   27 type  1   force =    -0.00012538   -0.00003682   -0.00076969
     atom   28 type  1   force =    -0.00001092   -0.00023549    0.00007211
     atom   29 type  1   force =     0.00009467    0.00024644   -0.00053121
     atom   30 type  1   force =     0.00007515   -0.00025926    0.00009457
     atom   31 type  1   force =    -0.00017665   -0.00010767    0.00025553
     atom   32 type  1   force =     0.00006591   -0.00022943   -0.00021260
     atom   33 type  1   force =     0.00005522    0.00011564    0.00001124
     atom   34 type  1   force =     0.00036617    0.00044642    0.00019447
     atom   35 type  1   force =    -0.00020163    0.00006267   -0.00024848
     atom   36 type  1   force =    -0.00001933   -0.00020690    0.00036102
     atom   37 type  1   force =     0.00042904    0.00033457   -0.00017980
     atom   38 type  1   force =     0.00035677    0.00028370   -0.00028062
     atom   39 type  1   force =    -0.00012259   -0.00040528    0.00021789
     atom   40 type  1   force =     0.00023924    0.00022723   -0.00054174
     atom   41 type  1   force =    -0.00025336   -0.00035198   -0.00003244
     atom   42 type  1   force =    -0.00025066    0.00001146    0.00043364
     atom   43 type  1   force =    -0.00010080   -0.00009757    0.00008623
     atom   44 type  1   force =     0.00009283   -0.00001890    0.00026690
     atom   45 type  1   force =    -0.00016836    0.00009063   -0.00011570
     atom   46 type  1   force =     0.00012862   -0.00002916    0.00020852
     atom   47 type  1   force =     0.00056931   -0.00035043    0.00027201
     atom   48 type  1   force =     0.00009781    0.00016706    0.00026946
     atom   49 type  2   force =     0.00015635    0.00026603    0.00015076
     atom   50 type  2   force =    -0.00006462   -0.00044202   -0.00013360
     atom   51 type  2   force =     0.00009120    0.00018862   -0.00001161
     atom   52 type  2   force =    -0.00018818    0.00005243    0.00010420
     atom   53 type  2   force =    -0.00035672    0.00047434   -0.00040043
     atom   54 type  2   force =     0.00009748    0.00024050    0.00024727
     atom   55 type  2   force =     0.00036376    0.00022269   -0.00024069
     atom   56 type  2   force =    -0.00058086    0.00033325   -0.00000559
     atom   57 type  3   force =     0.00015727   -0.00041338    0.00038960
     atom   58 type  3   force =    -0.00012760    0.00025104   -0.00040347
     atom   59 type  3   force =    -0.00014716    0.00011181   -0.00001584
     atom   60 type  3   force =     0.00040224    0.00027136   -0.00038268
[...]
     atom   94 type  6   force =    -0.00068333    0.00032207   -0.00013580
     atom   95 type  6   force =    -0.00037833   -0.00057173    0.00017615
     atom   96 type  6   force =    -0.00041487    0.00029076    0.00022991
     atom   97 type  6   force =    -0.00007173   -0.00081938   -0.00021217
     atom   98 type  6   force =    -0.00008681    0.00030649   -0.00019444
     atom   99 type  6   force =    -0.00016694   -0.00034747    0.00059655
     atom  100 type  6   force =     0.00007346    0.00004426   -0.00014893
     atom  101 type  6   force =    -0.00013951   -0.00036518   -0.00000740
     atom  102 type  6   force =    -0.00017602   -0.00026226    0.00023045
     atom  103 type  6   force =    -0.00026282   -0.00034689   -0.00023494
     atom  104 type  6   force =     0.00015664    0.00012712   -0.00017251
     atom  105 type  6   force =    -0.00006826   -0.00011982    0.00039605
     atom  106 type  6   force =     0.00011360   -0.00004023   -0.00022354
     atom  107 type  6   force =     0.00004439    0.00034068   -0.00019790
     atom  108 type  6   force =     0.00013973    0.00015402   -0.00001650

     Total force =     0.004997     Total SCF correction =     0.000201

     bfgs converged in  69 scf cycles and  68 bfgs steps
     (criteria: energy <  1.0E-04 Ry, force <  1.0E-03 Ry/Bohr)

     End of BFGS Geometry Optimization

     Final energy   =   -1906.5850166552 Ry
Begin final coordinates

ATOMIC_POSITIONS (crystal)
C             0.2790481647        0.9632525045        0.5385087547
C             0.0467358697        0.0423148046        0.0045737754
C             0.3788575667        0.0152448927        0.5586593086
C             0.1470037980        0.9967644441        0.0314704655
C             0.4470479088        0.9728110425        0.6559218608
C             0.2096068537        0.0417277065        0.1335718378
C             0.2118945634        0.5214983729        0.5343646478
C             0.4367533524        0.4394167200        0.0060422766
C             0.2421846760        0.6109592923        0.6065029631
C             0.4745851369        0.3597273594        0.0917046551
C             0.2529723217        0.8741413600        0.6142327092
C             0.0090714855        0.1247250707        0.0836731360
C             0.4146659311        0.8856244075        0.7305945927
C             0.1692678815        0.1299283424        0.2042593159
C             0.0942338805        0.5939340697        0.7415732073
C             0.3313942059        0.3853905893        0.2297629359
C             0.0616892457        0.5000247731        0.6764432461
C             0.2916203152        0.4683629707        0.1517624333
C             0.1193955502        0.4657750611        0.5666959894
C             0.3458456944        0.4994346122        0.0402380139
C             0.4139725414        0.1083321490        0.4832141330
C             0.1846264289        0.9036008926        0.9587356825
C             0.0805500092        0.3798286322        0.4823230849
C             0.3089869871        0.5937110314        0.9676127349
C             0.7796055872        0.9727971151        0.5456677115
C             0.5489001101        0.0371356768        0.0145374452
C             0.8845645000        0.0148036674        0.5567404805
C             0.6506067545        0.9946618206        0.0399052829
C             0.9547804251        0.9645868636        0.6459797075
C             0.7125011378        0.0394641796        0.1426905690
C             0.7136961722        0.5276105557        0.5411887536
C             0.9723005276        0.4933757260        0.0584881638
C             0.7479664223        0.6087084573        0.6270624202
C             1.0067702422        0.4067753641        0.1338511618
C             0.7510035686        0.8838378976        0.6197434933
C             0.5094302204        0.1168541364        0.0951737850
C             0.9198057840        0.8785534701        0.7210167545
C             0.6703604171        0.1265618666        0.2133992769
C             0.5722554408        0.6439697277        0.6869923800
C             0.8327646452        0.3716602831        0.2019616473
C             0.5332808815        0.5643883409        0.6026307928
C             0.7939598736        0.4627030498        0.1344644312
C             0.6039163316        0.5007216442        0.5329953001
C             0.8641248112        0.5221000467        0.0562527367
C             0.9221242355        0.1048962348        0.4783766300
C             0.6889822957        0.9046662861        0.9632027455
C             0.5628136437        0.4061781219        0.4629568937
C             0.8247706935        0.6094471890        0.9733197732
Cl            0.1791497560        0.0002941813        0.4357139180
Cl            0.3260652732        0.9831132686        0.1873057323
Cl            0.9585559816        0.4297554703        0.7412458428
Cl            0.5065775907        0.4538356039        0.8673567892
Cl            0.6759490194        0.0240716796        0.4593061634
Cl            0.8303624905        0.9837041558        0.1958217868
Cl            0.8116553865        0.4662841602        0.4601823521
Cl            0.6667474638        0.5027224752        0.1644576000
H             0.4987983501        0.0061995100        0.9371900023
H             0.0351127549        0.9930809037        0.6602195319
H             0.2599290393        0.4957030979        0.4549240286
H             0.0299254654        0.5383641595        1.0055842598
[...]
O             0.3672714736        0.6408001475        0.8828671283
O             0.3584970022        0.1541501677        0.3928608851
O             0.1248691609        0.8539177902        0.8745225857
O             0.4642044985        0.3790550252        0.4692671918
O             0.2162769235        0.6348738526        0.9863483511
O             0.0211172072        0.1340212822        0.4840608043
O             0.2796247218        0.8651707814        0.9737282498
O             0.6223827294        0.3444455166        0.3942255982
O             0.8839945555        0.6584719490        0.8917701226
O             0.8636493839        0.1587116704        0.3970665567
O             0.6285425471        0.8589438939        0.8759220135
O             0.9847741561        0.3430583296        0.4930339687
O             0.7260841051        0.6403787461        0.9746895382
O             0.5084384604        0.1487766716        0.5014014287
O             0.7837511865        0.8657902187        0.9771686304
End final coordinates

     Writing output data file /nfs/hpc/share/gantzlen/NiPyC2_relax_sc211_meta_functionalized_Cl_vdw-df2_relax.save/

     General routines

     Parallel routines

   This run was terminated on:  10:41:14  31Jul2020

   JOB DONE.
QE finished Fri Jul 31 10:41:14 PDT 2020