     Program PWSCF v.6.5 starts on 29May2020 at 18:51:28

     K-points division:     npool     =       2
     R & G space division:  proc/nbgrp/npool/nimage =       8
     Reading input from QE_input_scripts/pw.NiPyC2_P1.relax.in
Warning: card &CELL ignored
Warning: card CELL_DYNAMICS = 'BFGS' ignored
Warning: card CELL_DOFREE = 'XYZ' ignored
Warning: card / ignored

     Current dimensions of program PWSCF are:
     Max number of different atomic species (ntypx) = 10
     Max number of k-points (npk) =  40000
     Max angular momentum in pseudopotentials (lmaxx) =  3

     Parameters for Dispersion (Grimme-D2) Correction:
       atom      VdW radius       C_6

        Ni1        2.952        374.666
        Ni2        2.952        374.666
        O          2.536         24.284
        N          2.640         42.670
        C          2.744         60.710
        H          1.892          4.857

     gamma-point specific algorithms are used

     Subspace diagonalization in iterative solution of the eigenvalue problem:
     a serial algorithm will be used

     bravais-lattice index     =            0
     lattice parameter (alat)  =      11.8161  a.u.
     unit-cell volume          =    5429.3114 (a.u.)^3
     number of atoms/cell      =           54
     number of atomic types    =            6
     number of electrons       =       200.00 (up: 102.00, down:  98.00)
     number of Kohn-Sham states=          122
     kinetic-energy cutoff     =     100.0000  Ry
     charge density cutoff     =     400.0000  Ry
     convergence threshold     =      1.0E-06
     mixing beta               =       0.7000
     number of iterations used =            8  local-TF  mixing
     Exchange-correlation= PBESOL
                           (   1   4  10   8   0   0   0)
     nstep                     =          200

     celldm(1)=  11.816080  celldm(2)=   0.000000  celldm(3)=   0.000000
     celldm(4)=   0.000000  celldm(5)=   0.000000  celldm(6)=   0.000000

     crystal axes: (cart. coord. in units of alat)
               a(1) = (   1.000000   0.000000   0.000000 )
               a(2) = (   0.000000   2.002847   0.000000 )
               a(3) = (  -0.036399   0.000000   1.643149 )

     reciprocal axes: (cart. coord. in units 2 pi/alat)
               b(1) = (  1.000000  0.000000  0.022152 )
               b(2) = (  0.000000  0.499289  0.000000 )
               b(3) = (  0.000000  0.000000  0.608588 )

     PseudoPot. # 1 for Ni read from file:
     ./pseudo/Ni.pbesol-n-nc.UPF
     MD5 check sum: 623411631e0c2eb7c0b2b9815547d2d9
     Pseudo is Norm-conserving + core correction, Zval = 10.0
     Generated using "atomic" code by A. Dal Corso v.6.5
     Using radial grid of 1195 points,  2 beta functions with:
                l(1) =   1
                l(2) =   2

     PseudoPot. # 2 for Ni read from file:
     ./pseudo/Ni.pbesol-n-nc.UPF
     MD5 check sum: 623411631e0c2eb7c0b2b9815547d2d9
     Pseudo is Norm-conserving + core correction, Zval = 10.0
     Generated using "atomic" code by A. Dal Corso v.6.5
     Using radial grid of 1195 points,  2 beta functions with:
                l(1) =   1
                l(2) =   2

     PseudoPot. # 3 for O  read from file:
     ./pseudo/O.pbesol-nc.UPF
     MD5 check sum: 73d10e7e91dbfcbe8a7e362101007f84
     Pseudo is Norm-conserving, Zval =  6.0
     Generated using "atomic" code by A. Dal Corso v.6.5
     Using radial grid of 1095 points,  1 beta functions with:
                l(1) =   1

     PseudoPot. # 4 for N  read from file:
     ./pseudo/N.pbesol-nc.UPF
     MD5 check sum: e18cc5e4b8a5600c1a19b30c2cab1ca0
     Pseudo is Norm-conserving, Zval =  5.0
     Generated using "atomic" code by A. Dal Corso v.6.5
     Using radial grid of 1085 points,  1 beta functions with:
                l(1) =   1

     PseudoPot. # 5 for C  read from file:
     ./pseudo/C.pbesol-nc.UPF
     MD5 check sum: ce26087537ded160c8d400e183a8bf42
     Pseudo is Norm-conserving, Zval =  4.0
     Generated using "atomic" code by A. Dal Corso v.6.5
     Using radial grid of 1073 points,  1 beta functions with:
                l(1) =   1

     PseudoPot. # 6 for H  read from file:
     ./pseudo/H.pbesol-n-nc.UPF
     MD5 check sum: 7995ef24074557c85b430109caaacc09
     Pseudo is Norm-conserving, Zval =  1.0
     Generated using "atomic" code by A. Dal Corso v.6.5
     Using radial grid of  929 points,  0 beta functions with:

     atomic species   valence    mass     pseudopotential
        Ni1           10.00    58.69340     Ni( 1.00)
        Ni2           10.00    58.69340     Ni( 1.00)
        O              6.00    15.99940     O ( 1.00)
        N              5.00    14.00670     N ( 1.00)
        C              4.00    12.01070     C ( 1.00)
        H              1.00     1.00794     H ( 1.00)

     Starting magnetic structure
     atomic species   magnetization
        Ni1          0.250
        Ni2          0.250
        O            0.000
        N            0.000
        C            0.000
        H            0.000

     No symmetry found

   Cartesian axes

     site n.     atom                  positions (alat units)
         1           Ni2 tau(   1) = (   0.4642458   1.5100663   1.3793082  )
         2           O   tau(   2) = (   0.2269989   0.7002353   0.6455930  )
         3           O   tau(   3) = (   0.7414252   0.2665388   0.6082936  )
         4           O   tau(   4) = (   0.9187989   0.7054627   0.8171378  )
         5           O   tau(   5) = (   0.0492397   0.2399410   0.7791810  )
         6           N   tau(   6) = (   0.6025592   1.6881995   1.1439600  )
         7           N   tau(   7) = (   0.3350713   1.2940393   1.1750155  )
         8           C   tau(   8) = (   0.5691129   1.9213309   0.8435924  )
         9           H   tau(   9) = (   0.4840353   1.9752074   0.7297223  )
        10           C   tau(  10) = (   0.7737740   1.9988410   0.8769484  )
        11           C   tau(  11) = (   0.8939722   1.9119175   1.0440566  )
        12           H   tau(  12) = (   0.0365226   1.9583835   1.0688681  )
        13           C   tau(  13) = (   0.3878954   1.0396777   0.8940371  )
        14           H   tau(  14) = (   0.4777087   0.9833977   0.7850964  )
        15           C   tau(  15) = (   0.4576709   1.2081171   1.0215454  )
        16           H   tau(  16) = (   0.5969732   1.2643971   0.9988700  )
        17           C   tau(  17) = (   0.4898428   1.7643077   0.9776734  )
        18           H   tau(  18) = (   0.3510215   1.7084283   0.9515473  )
        19           C   tau(  19) = (   0.8025222   1.7578986   1.1727151  )
        20           H   tau(  20) = (   0.8848144   1.6990149   1.2859280  )
        21           C   tau(  21) = (   0.1377615   1.2107208   1.2070569  )
        22           H   tau(  22) = (   0.0501555   1.2710065   1.3156690  )
        23           C   tau(  23) = (   0.0584822   1.0420812   1.0887502  )
        24           H   tau(  24) = (   0.9198816   0.9864020   1.1158622  )
        25           C   tau(  25) = (   0.1873493   0.9553579   0.9277216  )
        26           C   tau(  26) = (   0.8614386   0.1788542   0.7476326  )
        27           C   tau(  27) = (   0.1044740   0.7734994   0.7911760  )
        28           Ni1 tau(  28) = (   0.9824452   0.4927804   0.5577339  )
        29           O   tau(  29) = (   0.7087996   1.3026115   1.4671673  )
        30           O   tau(  30) = (   0.2232258   1.7363079   1.4298678  )
        31           O   tau(  31) = (   0.4005995   1.2973840   1.6387120  )
        32           O   tau(  32) = (   0.5310404   1.7629057   1.6007553  )
        33           N   tau(  33) = (   0.1207586   0.3146472   0.3223857  )
        34           N   tau(  34) = (   0.8532706   0.7088075   0.3534412  )
        35           C   tau(  35) = (   0.0873123   0.0815159   0.0220182  )
        36           H   tau(  36) = (  -0.0341640   0.0276393   1.5512965  )
        37           C   tau(  37) = (   0.2919734   0.0040057   0.0553741  )
        38           C   tau(  38) = (   0.4121716   0.0909292   0.2224823  )
        39           H   tau(  39) = (   0.5547220   0.0444632   0.2472939  )
        40           C   tau(  40) = (   0.9060948   0.9631690   0.0724628  )
        41           H   tau(  41) = (   0.9595093   1.0194490   1.6066706  )
        42           C   tau(  42) = (   0.9758703   0.7947296   0.1999712  )
        43           H   tau(  43) = (   0.1151726   0.7384496   0.1772957  )
        44           C   tau(  44) = (   0.0080421   0.2385390   0.1560991  )
        45           H   tau(  45) = (   0.8692209   0.2944185   0.1299730  )
        46           C   tau(  46) = (   0.3207216   0.2449482   0.3511408  )
        47           H   tau(  47) = (   0.4030137   0.3038318   0.4643538  )
        48           C   tau(  48) = (   0.6559609   0.7921259   0.3854826  )
        49           H   tau(  49) = (   0.5683549   0.7318402   0.4940948  )
        50           C   tau(  50) = (   0.5766816   0.9607656   0.2671759  )
        51           H   tau(  51) = (   0.4380810   1.0164447   0.2942879  )
        52           C   tau(  52) = (   0.7055486   1.0474888   0.1061474  )
        53           C   tau(  53) = (   0.3432392   1.8239925   1.5692068  )
        54           C   tau(  54) = (   0.5862746   1.2293473   1.6127503  )

     number of k points=     1  Marzari-Vanderbilt smearing, width (Ry)=  0.2000
                       cart. coord. in units 2pi/alat
        k(    1) = (   0.0000000   0.0000000   0.0000000), wk =   1.0000000

     Check: negative core charge=   -0.000145

     Initial potential from superposition of free atoms

     starting charge  199.99835, renormalised to  200.00000
     Starting wfcs are  178 randomized atomic wfcs

     Self-consistent Calculation

     iteration #  1     ecut=   100.00 Ry     beta= 0.70
     Davidson diagonalization with overlap
     ethr =  1.00E-02,  avg # of iterations =  4.0

     total energy              =    -808.50799022 Ry
     Harris-Foulkes estimate   =    -813.53961135 Ry
     estimated scf accuracy    <      13.16605648 Ry

     total magnetization       =     4.00 Bohr mag/cell
     absolute magnetization    =     4.57 Bohr mag/cell

[...]

     Magnetic moment per site:
     atom:    1    charge:    7.5197    magn:    1.2591    constr:    0.0000
     atom:    2    charge:    3.1214    magn:    0.0530    constr:    0.0000
     atom:    3    charge:    3.1196    magn:    0.0537    constr:    0.0000
     atom:    4    charge:    3.1293    magn:    0.0507    constr:    0.0000
     atom:    5    charge:    3.1279    magn:    0.0529    constr:    0.0000
     atom:    6    charge:    2.4097    magn:    0.0143    constr:    0.0000
     atom:    7    charge:    2.4038    magn:    0.0134    constr:    0.0000
     atom:    8    charge:    0.5999    magn:    0.0036    constr:    0.0000
     atom:    9    charge:    0.4555    magn:   -0.0007    constr:    0.0000
     atom:   10    charge:    0.5735    magn:    0.0039    constr:    0.0000
     atom:   11    charge:    0.5988    magn:    0.0038    constr:    0.0000
     atom:   12    charge:    0.4555    magn:   -0.0008    constr:    0.0000
[...]
N             0.8774089219        0.3508407167        0.2079110383
C             0.0767769189        0.0309889105        0.0224078885
H            -0.0268542488        0.0025743999        0.9435814326
C             0.2804781203       -0.0123787497        0.0463652036
C             0.4049387752        0.0283155677        0.1500909189
H             0.5646525811       -0.0013793825        0.1727652573
C             0.9172847611        0.4712874558        0.0277041831
H             1.0177881750        0.5003808528        0.9504877227
C             0.9936283544        0.3885466392        0.1085208436
H             0.1498606437        0.3526576488        0.0949966085
C             0.0020513497        0.1121325042        0.1042532077
H             0.8445691728        0.1476064506        0.0899128384
C             0.3196166094        0.1094901813        0.2279635662
H             0.4123540263        0.1430608948        0.3088666640
C             0.6816743576        0.3916784848        0.2292935750
H             0.5923818815        0.3575689630        0.3088396002
C             0.5953544811        0.4747507733        0.1525677488
H             0.4379514333        0.5054005217        0.1749366445
C             0.7158778031        0.5155817294        0.0504353431
C             0.3629762046        0.8996400264        0.9658413310
C             0.6321990032        0.6041587899        0.9690924737

     Writing output data file ./NiPyC2_P1_relax.save/
     NEW-OLD atomic charge density approx. for the potential

     Check: negative core charge=   -0.000145

     Self-consistent Calculation

[...]

     Threshold (ethr) on eigenvalues was too large:
     Diagonalizing with lowered threshold

     Davidson diagonalization with overlap
     ethr =  2.43E-08,  avg # of iterations =  2.0

[...]

     total energy              =    -811.25584496 Ry
     Harris-Foulkes estimate   =    -811.25584497 Ry
     estimated scf accuracy    <       0.00000002 Ry

[...]

     iteration #  9     ecut=   100.00 Ry     beta= 0.70
     Davidson diagonalization with overlap
     ethr =  8.52E-12,  avg # of iterations =  2.5

     Magnetic moment per site:
     atom:    1    charge:    7.5219    magn:    1.1537    constr:    0.0000
     atom:    2    charge:    3.0698    magn:    0.0593    constr:    0.0000
     atom:    3    charge:    2.8604    magn:    0.0559    constr:    0.0000
     atom:    4    charge:    2.9013    magn:    0.0583    constr:    0.0000
     atom:    5    charge:    2.8125    magn:    0.0576    constr:    0.0000
     atom:    6    charge:    2.2907    magn:    0.0154    constr:    0.0000
     atom:    7    charge:    2.3427    magn:    0.0149    constr:    0.0000
     atom:    8    charge:    0.5322    magn:    0.0050    constr:    0.0000
     atom:    9    charge:    0.4030    magn:   -0.0008    constr:    0.0000
     atom:   10    charge:    0.5107    magn:    0.0038    constr:    0.0000
     atom:   11    charge:    0.4904    magn:    0.0053    constr:    0.0000
     atom:   12    charge:    0.3243    magn:   -0.0006    constr:    0.0000
     atom:   13    charge:    0.5289    magn:    0.0044    constr:    0.0000
     atom:   14    charge:    0.4030    magn:   -0.0005    constr:    0.0000
     atom:   15    charge:    0.5274    magn:    0.0037    constr:    0.0000
     atom:   16    charge:    0.4325    magn:   -0.0005    constr:    0.0000
     atom:   17    charge:    0.5361    magn:    0.0042    constr:    0.0000
     atom:   18    charge:    0.4110    magn:   -0.0006    constr:    0.0000
     atom:   19    charge:    0.5078    magn:    0.0045    constr:    0.0000
     atom:   20    charge:    0.3661    magn:   -0.0001    constr:    0.0000
     atom:   21    charge:    0.5584    magn:    0.0038    constr:    0.0000
     atom:   22    charge:    0.3813    magn:   -0.0005    constr:    0.0000
     atom:   23    charge:    0.5526    magn:    0.0044    constr:    0.0000
     atom:   24    charge:    0.3754    magn:   -0.0010    constr:    0.0000
     atom:   25    charge:    0.5442    magn:    0.0033    constr:    0.0000
     atom:   26    charge:    0.5098    magn:   -0.0014    constr:    0.0000
     atom:   27    charge:    0.5369    magn:   -0.0015    constr:    0.0000
     atom:   28    charge:    7.5243    magn:    1.1522    constr:    0.0000
     atom:   29    charge:    3.0469    magn:    0.0609    constr:    0.0000
     atom:   30    charge:    2.8693    magn:    0.0566    constr:    0.0000
     atom:   31    charge:    2.8240    magn:    0.0583    constr:    0.0000
     atom:   32    charge:    2.7265    magn:    0.0558    constr:    0.0000
     atom:   33    charge:    2.2979    magn:    0.0155    constr:    0.0000
     atom:   34    charge:    2.3491    magn:    0.0153    constr:    0.0000
     atom:   35    charge:    0.5347    magn:    0.0050    constr:    0.0000
     atom:   36    charge:    0.4039    magn:   -0.0008    constr:    0.0000
     atom:   37    charge:    0.5097    magn:    0.0038    constr:    0.0000
     atom:   38    charge:    0.4866    magn:    0.0054    constr:    0.0000
     atom:   39    charge:    0.3198    magn:   -0.0005    constr:    0.0000
     atom:   40    charge:    0.5352    magn:    0.0044    constr:    0.0000
     atom:   41    charge:    0.4131    magn:   -0.0005    constr:    0.0000
     atom:   42    charge:    0.5374    magn:    0.0036    constr:    0.0000
     atom:   43    charge:    0.4548    magn:   -0.0006    constr:    0.0000
     atom:   44    charge:    0.5403    magn:    0.0042    constr:    0.0000
     atom:   45    charge:    0.4110    magn:   -0.0007    constr:    0.0000
     atom:   46    charge:    0.5058    magn:    0.0045    constr:    0.0000
     atom:   47    charge:    0.3695    magn:   -0.0001    constr:    0.0000
     atom:   48    charge:    0.5587    magn:    0.0037    constr:    0.0000
     atom:   49    charge:    0.3741    magn:   -0.0005    constr:    0.0000
     atom:   50    charge:    0.5541    magn:    0.0044    constr:    0.0000
     atom:   51    charge:    0.3747    magn:   -0.0010    constr:    0.0000
     atom:   52    charge:    0.5450    magn:    0.0033    constr:    0.0000
     atom:   53    charge:    0.5053    magn:   -0.0014    constr:    0.0000
     atom:   54    charge:    0.5283    magn:   -0.0016    constr:    0.0000

     End of self-consistent calculation

 ------ SPIN UP ------------

[...]

 ------ SPIN DOWN ----------

          k = 0.0000 0.0000 0.0000 ( 45819 PWs)   bands (ev):

   -22.4794 -22.4691 -22.3500 -22.3431 -19.4189 -19.4008 -19.3982 -19.3847
   -19.2216 -19.1991 -19.1120 -19.0989 -15.4712 -15.3982 -15.3833 -15.3599
   -14.1426 -14.1001 -14.0870 -14.0373 -11.7347 -11.6028 -11.5754 -11.5564
   -11.0166 -10.9895 -10.9708 -10.9005  -9.3592  -9.1283  -9.1149  -9.0469
    -8.2413  -7.7665  -7.6775  -7.6225  -7.4908  -7.4484  -7.4086  -7.3610
    -6.7933  -6.6336  -6.5766  -6.5451  -6.5127  -6.4924  -6.3528  -6.3305
    -6.2870  -6.2733  -6.1623  -6.1507  -6.1375  -6.0734  -6.0475  -5.8465
    -5.5829  -5.5699  -5.5207  -5.4064  -5.2416  -5.2052  -5.1234  -4.9183
    -4.5840  -4.0453  -4.0264  -3.9913  -3.9116  -3.8796  -3.7261  -3.5510
    -3.4129  -3.3083  -3.1424  -3.1191  -2.8571  -2.8088  -2.7333  -2.7239
    -2.6416  -2.4152  -2.3693  -2.3401  -2.3320  -2.2794  -2.0164  -2.0010
    -1.9084  -1.8822  -1.8529  -1.7111  -1.6758  -1.3549  -1.3452  -1.3294
    -1.3228  -1.1985   0.4631   0.4944   0.6795   0.7239   2.0012   2.0335
     2.0763   2.1287   3.0585   3.2073   3.3433   3.5286   3.5667   4.2962
     4.4661   4.5219   4.7015   4.7100   5.0374   5.3950   5.6800   5.7710
     5.9359   6.1234

     the spin up/dw Fermi energies are     0.1647   -0.1989 ev

!    total energy              =    -811.25584496 Ry
     Harris-Foulkes estimate   =    -811.25584496 Ry
     estimated scf accuracy    <          6.5E-09 Ry

     The total energy is the sum of the following terms:

     one-electron contribution =   -1218.48996036 Ry
     hartree contribution      =     679.55469059 Ry
     xc contribution           =    -246.42826225 Ry
     ewald contribution        =     -27.06452880 Ry
     Dispersion Correction     =      -0.20859013 Ry
     smearing contrib. (-TS)   =       1.38080597 Ry

     total magnetization       =     4.00 Bohr mag/cell
     absolute magnetization    =     4.12 Bohr mag/cell

     convergence has been achieved in   9 iterations

     Forces acting on atoms (cartesian axes, Ry/au):

     atom    1 type  2   force =    -0.00022866    0.00026619    0.00003440
     atom    2 type  3   force =     0.00002458   -0.00010801   -0.00015463
     atom    3 type  3   force =     0.00001825    0.00061395   -0.00020384
     atom    4 type  3   force =     0.00078671   -0.00033259   -0.00009386
     atom    5 type  3   force =    -0.00043310    0.00041311   -0.00029694
     atom    6 type  4   force =    -0.00037661    0.00043005    0.00064463
     atom    7 type  4   force =     0.00001605    0.00004489   -0.00021941
     atom    8 type  5   force =    -0.00027750   -0.00029911    0.00003454
     atom    9 type  6   force =     0.00008456    0.00022588    0.00022505
     atom   10 type  5   force =     0.00022876   -0.00019974    0.00049728
     atom   11 type  5   force =    -0.00053213   -0.00032869   -0.00008740
     atom   12 type  6   force =     0.00018835   -0.00014271    0.00061695
     atom   13 type  5   force =     0.00064438   -0.00013552   -0.00014408
     atom   14 type  6   force =    -0.00023785    0.00007374    0.00030761
     atom   15 type  5   force =    -0.00039188    0.00022910    0.00015915
     atom   16 type  6   force =    -0.00012737   -0.00023247    0.00017913
     atom   17 type  5   force =    -0.00001783   -0.00050559    0.00000742
     atom   18 type  6   force =     0.00007446    0.00050851   -0.00025053
     atom   19 type  5   force =     0.00027168   -0.00044708   -0.00002983
     atom   20 type  6   force =    -0.00018060   -0.00024522   -0.00026788
     atom   21 type  5   force =     0.00004178    0.00001063   -0.00024168
     atom   22 type  6   force =     0.00077809    0.00010208   -0.00016036
     atom   23 type  5   force =     0.00012567   -0.00037138    0.00010984
     atom   24 type  6   force =     0.00011937    0.00031862    0.00002858
     atom   25 type  5   force =    -0.00017340    0.00033035   -0.00005694
     atom   26 type  5   force =     0.00042116   -0.00062156    0.00048988
     atom   27 type  5   force =     0.00007093    0.00031767   -0.00074802
     atom   28 type  1   force =     0.00025333   -0.00089593   -0.00000608
     atom   29 type  3   force =    -0.00098010    0.00051783    0.00002188
     atom   30 type  3   force =     0.00028252    0.00041904    0.00018651
     atom   31 type  3   force =    -0.00043222    0.00052682    0.00069900
     atom   32 type  3   force =     0.00028339   -0.00062431    0.00006588
     atom   33 type  4   force =    -0.00029671   -0.00025848    0.00065757
     atom   34 type  4   force =     0.00013569    0.00009378    0.00004947
     atom   35 type  5   force =     0.00014999    0.00020871    0.00011323
     atom   36 type  6   force =     0.00029004   -0.00043249    0.00007778
     atom   37 type  5   force =    -0.00030078    0.00033479    0.00022621
     atom   38 type  5   force =     0.00001335    0.00000167    0.00003297
     atom   39 type  6   force =    -0.00038570    0.00038201    0.00022973
     atom   40 type  5   force =     0.00033177   -0.00004080   -0.00008679
     atom   41 type  6   force =     0.00024030    0.00003154    0.00016051
     atom   42 type  5   force =    -0.00026342   -0.00030220   -0.00028106
     atom   43 type  6   force =     0.00020939   -0.00027049    0.00012204
     atom   44 type  5   force =     0.00019861    0.00043620    0.00012441
     atom   45 type  6   force =    -0.00025119   -0.00075762   -0.00031505
     atom   46 type  5   force =    -0.00003222    0.00055433   -0.00031271
     atom   47 type  6   force =    -0.00028782    0.00017984   -0.00023688
     atom   48 type  5   force =    -0.00011053   -0.00024929   -0.00023889
     atom   49 type  6   force =    -0.00002893    0.00006964   -0.00015941
     atom   50 type  5   force =     0.00033763    0.00002240   -0.00020678
     atom   51 type  6   force =     0.00011693    0.00027841   -0.00048513
     atom   52 type  5   force =    -0.00021890   -0.00052046    0.00010038
     atom   53 type  5   force =    -0.00010792    0.00034996   -0.00061500
     atom   54 type  5   force =    -0.00006433    0.00003002   -0.00030286

     Total force =     0.004205     Total SCF correction =     0.000183

     bfgs converged in  48 scf cycles and  46 bfgs steps
     (criteria: energy <  1.0E-04 Ry, force <  1.0E-03 Ry/Bohr)

     End of BFGS Geometry Optimization

     Final energy   =    -811.2558449637 Ry
Begin final coordinates

ATOMIC_POSITIONS (crystal)
Ni2           0.4940094559        0.7513940083        0.8363193605
O             0.2456454458        0.3477640174        0.3827150822
O             0.7551533778        0.1475885387        0.3772684834
O             0.9463251949        0.3561316562        0.4830305814
O             0.0577552345        0.1351241409        0.4810573301
N             0.6168598666        0.8512616307        0.7049475334
N             0.3729394395        0.6503922979        0.7057275320
C             0.5763969362        0.9701161945        0.5221125541
H             0.4741150155        0.9996157562        0.4432546689
C             0.7811645026        1.0119200412        0.5466714756
C             0.9038366067        0.9702883433        0.6505387500
H             0.0641327333        0.9988767667        0.6736153183
C             0.4163759025        0.5298077236        0.5262854853
H             0.5175572416        0.5009181177        0.4492518424
C             0.4902578477        0.6133964183        0.6063527430
H             0.6452340466        0.6506198335        0.5926854410
C             0.4988931781        0.8892547727        0.6033269400
H             0.3402144955        0.8551478451        0.5886719384
C             0.8158975154        0.8894524328        0.7277373613
H             0.9069426194        0.8552384030        0.8088928089
C             0.1777443340        0.6089267811        0.7273045436
H             0.0873579813        0.6429080445        0.8065002852
C             0.0940102363        0.5250592152        0.6511779139
H             0.9374945161        0.4931242060        0.6731858244
C             0.2164221434        0.4843484964        0.5499332359
C             0.8665145557        0.0994721600        0.4667189469
C             0.1349435926        0.3945155626        0.4705716125
Ni1           0.9999130930        0.2479809640        0.3391804347
O             0.7423716512        0.6509969052        0.8811965942
O             0.2502099185        0.8523363765        0.8762903031
O             0.4424519350        0.6414003393        0.9800151422
O             0.5533936593        0.8628412957        0.9794617496
N             0.1212964019        0.1488773360        0.2060260935
N             0.8774089219        0.3508407167        0.2079110383
C             0.0767769189        0.0309889105        0.0224078885
H            -0.0268542488        0.0025743999        0.9435814326
C             0.2804781203       -0.0123787497        0.0463652036
C             0.4049387752        0.0283155677        0.1500909189
H             0.5646525811       -0.0013793825        0.1727652573
C             0.9172847611        0.4712874558        0.0277041831
H             1.0177881750        0.5003808528        0.9504877227
C             0.9936283544        0.3885466392        0.1085208436
H             0.1498606437        0.3526576488        0.0949966085
C             0.0020513497        0.1121325042        0.1042532077
H             0.8445691728        0.1476064506        0.0899128384
C             0.3196166094        0.1094901813        0.2279635662
H             0.4123540263        0.1430608948        0.3088666640
C             0.6816743576        0.3916784848        0.2292935750
H             0.5923818815        0.3575689630        0.3088396002
C             0.5953544811        0.4747507733        0.1525677488
H             0.4379514333        0.5054005217        0.1749366445
C             0.7158778031        0.5155817294        0.0504353431
C             0.3629762046        0.8996400264        0.9658413310
C             0.6321990032        0.6041587899        0.9690924737
End final coordinates

     Writing output data file ./NiPyC2_P1_relax.save/

     General routines

     Parallel routines

   This run was terminated on:  21:40:40  29May2020

   JOB DONE.
QE finished Fri May 29 21:40:40 PDT 2020