     Program PWSCF v.6.5 starts on 29Jul2020 at 11:44:55

     K-points division:     npool     =       2
     R & G space division:  proc/nbgrp/npool/nimage =       8
     Reading input from ./QE_input_scripts/pw.NiPyC2_relax_sc211_meta_functionalized_C-C_vdw-df2_relax.in
Warning: card &CELL ignored
Warning: card    CELL_DYNAMICS = 'BFGS' ignored
Warning: card    CELL_DOFREE = 'XYZ' ignored
Warning: card / ignored

     Current dimensions of program PWSCF are:
     Max number of different atomic species (ntypx) = 10
     Max number of k-points (npk) =  40000
     Max angular momentum in pseudopotentials (lmaxx) =  3

     IMPORTANT: XC functional enforced from input :
     Exchange-correlation= VDW-DF2
                           (   1   4  13   0   2   0   0)
     Any further DFT definition will be discarded
     Please, verify this is what you really want

     Parameters for Dispersion (Grimme-D2) Correction:
       atom      VdW radius       C_6

        C          2.744         60.710
        H          1.892          4.857
        N          2.640         42.670
        Ni         2.952        374.666
        O          2.536         24.284

     gamma-point specific algorithms are used

     Subspace diagonalization in iterative solution of the eigenvalue problem:
     a serial algorithm will be used

     bravais-lattice index     =            0
     lattice parameter (alat)  =      23.6322  a.u.
     unit-cell volume          =   10858.6228 (a.u.)^3
     number of atoms/cell      =          124
     number of atomic types    =            5
     number of electrons       =       464.00 (up: 236.00, down: 228.00)
     number of Kohn-Sham states=          283
     kinetic-energy cutoff     =     100.0000  Ry
     charge density cutoff     =     400.0000  Ry
     convergence threshold     =      1.0E-06
     mixing beta               =       0.7000
     number of iterations used =            8  local-TF  mixing
     Exchange-correlation= VDW-DF2
                           (   1   4  13   0   2   0   0)
     nstep                     =          200

     celldm(1)=  23.632159  celldm(2)=   0.000000  celldm(3)=   0.000000
     celldm(4)=   0.000000  celldm(5)=   0.000000  celldm(6)=   0.000000

     crystal axes: (cart. coord. in units of alat)
               a(1) = (   1.000000   0.000000   0.000000 )
               a(2) = (   0.000000   1.001423   0.000000 )
               a(3) = (  -0.018199   0.000000   0.821574 )

     reciprocal axes: (cart. coord. in units 2 pi/alat)
               b(1) = (  1.000000  0.000000  0.022152 )
               b(2) = (  0.000000  0.998579  0.000000 )
               b(3) = (  0.000000  0.000000  1.217175 )

     PseudoPot. # 1 for C  read from file:
     ./pseudo/C.pbesol-nc.UPF
     MD5 check sum: ce26087537ded160c8d400e183a8bf42
     Pseudo is Norm-conserving, Zval =  4.0
     Generated using "atomic" code by A. Dal Corso v.6.5
     Using radial grid of 1073 points,  1 beta functions with:
                l(1) =   1

     PseudoPot. # 2 for H  read from file:
     ./pseudo/H.pbesol-n-nc.UPF
     MD5 check sum: 7995ef24074557c85b430109caaacc09
     Pseudo is Norm-conserving, Zval =  1.0
     Generated using "atomic" code by A. Dal Corso v.6.5
     Using radial grid of  929 points,  0 beta functions with:

     PseudoPot. # 3 for N  read from file:
     ./pseudo/N.pbesol-nc.UPF
     MD5 check sum: e18cc5e4b8a5600c1a19b30c2cab1ca0
     Pseudo is Norm-conserving, Zval =  5.0
     Generated using "atomic" code by A. Dal Corso v.6.5
     Using radial grid of 1085 points,  1 beta functions with:
                l(1) =   1

     PseudoPot. # 4 for Ni read from file:
     ./pseudo/Ni.pbesol-n-nc.UPF
     MD5 check sum: 623411631e0c2eb7c0b2b9815547d2d9
     Pseudo is Norm-conserving + core correction, Zval = 10.0
     Generated using "atomic" code by A. Dal Corso v.6.5
     Using radial grid of 1195 points,  2 beta functions with:
                l(1) =   1
                l(2) =   2

     PseudoPot. # 5 for O  read from file:
     ./pseudo/O.pbesol-nc.UPF
     MD5 check sum: 73d10e7e91dbfcbe8a7e362101007f84
     Pseudo is Norm-conserving, Zval =  6.0
     Generated using "atomic" code by A. Dal Corso v.6.5
     Using radial grid of 1095 points,  1 beta functions with:
                l(1) =   1

     atomic species   valence    mass     pseudopotential
        C              4.00    12.01070     C ( 1.00)
        H              1.00     1.00794     H ( 1.00)
        N              5.00    14.00670     N ( 1.00)
        Ni            10.00    58.69340     Ni( 1.00)
        O              6.00    15.99940     O ( 1.00)

     Starting magnetic structure
     atomic species   magnetization
        C            0.000
        H            0.000
        N            0.000
        Ni           0.250
        O            0.000

     No symmetry found

   Cartesian axes

     site n.     atom                  positions (alat units)
         1           C   tau(   1) = (   0.2787122   0.9714307   0.4288486  )
         2           C   tau(   2) = (   0.0379730   0.0311503   0.0183277  )
         3           C   tau(   3) = (   0.3806882   0.0117868   0.4489838  )
         4           C   tau(   4) = (   0.1394042   0.9891499   0.0379124  )
         5           C   tau(   5) = (   0.4400787   0.9715829   0.5343281  )
         6           C   tau(   6) = (   0.1997920   0.0283934   0.1231482  )
         7           C   tau(   7) = (   0.1986011   0.5304580   0.4324635  )
         8           C   tau(   8) = (   0.4580372   0.4720800   0.0229252  )
         9           C   tau(   9) = (   0.2341003   0.6142040   0.4982314  )
        10           C   tau(  10) = (   0.4948422   0.3892302   0.0892369  )
        11           C   tau(  11) = (   0.2384981   0.8904717   0.4955761  )
        12           C   tau(  12) = (  -0.0008282   0.1123917   0.0856467  )
        13           C   tau(  13) = (   0.3947360   0.8906489   0.5977380  )
        14           C   tau(  14) = (   0.1557890   0.1097029   0.1871645  )
        15           C   tau(  15) = (   0.0756247   0.6098498   0.5975737  )
        16           C   tau(  16) = (   0.3367152   0.3921904   0.1884642  )
        17           C   tau(  17) = (   0.0350715   0.5258264   0.5351012  )
        18           C   tau(  18) = (   0.2948780   0.4753867   0.1254988  )
        19           C   tau(  19) = (   0.0981522   0.4849593   0.4519611  )
        20           C   tau(  20) = (   0.3569104   0.5163900   0.0416029  )
        21           C   tau(  21) = (   0.4248178   0.0994604   0.3833638  )
        22           C   tau(  22) = (   0.1639424   0.9010006   0.7933713  )
        23           C   tau(  23) = (   0.0588120   0.3950355   0.3866953  )
        24           C   tau(  24) = (   0.2984059   0.6050320   0.7961934  )
        25           C   tau(  25) = (   0.7787122   0.9714307   0.4288486  )
        26           C   tau(  26) = (   0.5379730   0.0311503   0.0183277  )
        27           C   tau(  27) = (   0.8806882   0.0117868   0.4489838  )
        28           C   tau(  28) = (   0.6394042   0.9891499   0.0379124  )
        29           C   tau(  29) = (   0.9400787   0.9715829   0.5343281  )
        30           C   tau(  30) = (   0.6997920   0.0283934   0.1231482  )
        31           C   tau(  31) = (   0.6986021   0.5304580   0.4324635  )
        32           C   tau(  32) = (   0.9580382   0.4720800   0.0229252  )
        33           C   tau(  33) = (   0.7341003   0.6142040   0.4982314  )
        34           C   tau(  34) = (   0.9948422   0.3892302   0.0892369  )
        35           C   tau(  35) = (   0.7384981   0.8904717   0.4955761  )
        36           C   tau(  36) = (   0.4991718   0.1123917   0.0856467  )
        37           C   tau(  37) = (   0.8947360   0.8906489   0.5977380  )
        38           C   tau(  38) = (   0.6557880   0.1097029   0.1871645  )
        39           C   tau(  39) = (   0.5756247   0.6098498   0.5975737  )
        40           C   tau(  40) = (   0.8367152   0.3921904   0.1884642  )
        41           C   tau(  41) = (   0.5350715   0.5258264   0.5351012  )
        42           C   tau(  42) = (   0.7948780   0.4753867   0.1254988  )
        43           C   tau(  43) = (   0.5981522   0.4849593   0.4519611  )
        44           C   tau(  44) = (   0.8569104   0.5163900   0.0416029  )
        45           C   tau(  45) = (   0.9248178   0.0994604   0.3833638  )
        46           C   tau(  46) = (   0.6639424   0.9010006   0.7933713  )
        47           C   tau(  47) = (   0.5588110   0.3950355   0.3866953  )
        48           C   tau(  48) = (   0.7984059   0.6050320   0.7961934  )
        49           C   tau(  49) = (   0.2160256   0.0048259   0.3459017  )
        50           C   tau(  50) = (   0.1621804   0.0349527   0.2744083  )
        51           C   tau(  51) = (   0.3002275   0.9933799   0.1470996  )
        52           C   tau(  52) = (   0.3868427   0.9618151   0.1675847  )
        53           C   tau(  53) = (   0.2639708   0.4967290   0.3512674  )
        54           C   tau(  54) = (   0.3201892   0.4675225   0.2812331  )
        55           C   tau(  55) = (   0.1949049   0.5132815   0.1490656  )
        56           C   tau(  56) = (   0.1086822   0.5461002   0.1692336  )
        57           C   tau(  57) = (   0.7160256   0.0048259   0.3459017  )
        58           C   tau(  58) = (   0.6621804   0.0349527   0.2744083  )
        59           C   tau(  59) = (   0.8002275   0.9933809   0.1471004  )
        60           C   tau(  60) = (   0.8868427   0.9618161   0.1675855  )
[...]
       110           O   tau( 110) = (   0.3551690   0.6519036   0.7240468  )
       111           O   tau( 111) = (   0.3707656   0.1477170   0.3098797  )
       112           O   tau( 112) = (   0.1091506   0.8535652   0.7199135  )
       113           O   tau( 113) = (   0.4642788   0.3566669   0.3968154  )
       114           O   tau( 114) = (   0.2033039   0.6423280   0.8050417  )
       115           O   tau( 115) = (   0.0200847   0.1353504   0.3952413  )
       116           O   tau( 116) = (   0.2588616   0.8639860   0.8046490  )
       117           O   tau( 117) = (   0.6158110   0.3481839   0.3145586  )
       118           O   tau( 118) = (   0.8551690   0.6519036   0.7240468  )
       119           O   tau( 119) = (   0.8707656   0.1477170   0.3098797  )
       120           O   tau( 120) = (   0.6091506   0.8535652   0.7199135  )
       121           O   tau( 121) = (   0.9642788   0.3566669   0.3968154  )
       122           O   tau( 122) = (   0.7033039   0.6423280   0.8050417  )
       123           O   tau( 123) = (   0.5200847   0.1353504   0.3952413  )
       124           O   tau( 124) = (   0.7588616   0.8639860   0.8046490  )

     number of k points=     1  Marzari-Vanderbilt smearing, width (Ry)=  0.2000
                       cart. coord. in units 2pi/alat
        k(    1) = (   0.0000000   0.0000000   0.0000000), wk =   1.0000000

     Check: negative core charge=   -0.000145

     Initial potential from superposition of free atoms

     starting charge  463.99604, renormalised to  464.00000

[...]
     atom:   53    charge:    0.2310    magn:    0.0028    constr:    0.0000
     atom:   54    charge:    0.0463    magn:    0.0007    constr:    0.0000
     atom:   55    charge:    0.3523    magn:    0.0027    constr:    0.0000
     atom:   56    charge:    0.3751    magn:    0.0075    constr:    0.0000
     atom:   57    charge:    0.2900    magn:    0.0040    constr:    0.0000
     atom:   58    charge:    0.0748    magn:    0.0013    constr:    0.0000
     atom:   59    charge:    0.3585    magn:    0.0025    constr:    0.0000
     atom:   60    charge:    0.3368    magn:    0.0067    constr:    0.0000
[...]
     atom:  110    charge:    3.2883    magn:    0.0451    constr:    0.0000
     atom:  111    charge:    3.2581    magn:    0.0469    constr:    0.0000
     atom:  112    charge:    3.1226    magn:    0.0446    constr:    0.0000
     atom:  113    charge:    3.2812    magn:    0.0503    constr:    0.0000
     atom:  114    charge:    3.2929    magn:    0.0456    constr:    0.0000
     atom:  115    charge:    2.6777    magn:    0.0420    constr:    0.0000
     atom:  116    charge:    3.1348    magn:    0.0462    constr:    0.0000
     atom:  117    charge:    3.2733    magn:    0.0466    constr:    0.0000
     atom:  118    charge:    3.1712    magn:    0.0444    constr:    0.0000
     atom:  119    charge:    3.0939    magn:    0.0455    constr:    0.0000
     atom:  120    charge:    3.2359    magn:    0.0460    constr:    0.0000
     atom:  121    charge:    2.5698    magn:    0.0440    constr:    0.0000
     atom:  122    charge:    3.2468    magn:    0.0468    constr:    0.0000
     atom:  123    charge:    3.2497    magn:    0.0511    constr:    0.0000
     atom:  124    charge:    3.2457    magn:    0.0464    constr:    0.0000

     End of self-consistent calculation

 ------ SPIN UP ------------

[...]

 ------ SPIN DOWN ----------

          k = 0.0000 0.0000 0.0000 ( 91663 PWs)   bands (ev):

   -21.2565 -21.2378 -21.2247 -21.1603 -21.1516 -21.1043 -21.0952 -21.0275
   -18.5261 -18.4443 -18.4341 -18.4083 -18.3926 -18.3883 -18.3785 -18.3639
   -18.3590 -18.3569 -18.3454 -18.3198 -18.2999 -18.2909 -18.2518 -18.2350
   -15.2820 -15.2486 -15.2352 -15.1743 -15.1588 -15.1535 -15.1296 -15.1276
   -14.2075 -14.1725 -14.1367 -14.1232 -14.0770 -14.0461 -13.9691 -13.9356
   -13.0513 -12.9851 -12.9827 -12.9337 -12.9140 -12.8949 -12.8377 -12.8221
   -11.2466 -11.2064 -11.1580 -11.1517 -11.1343 -11.1146 -11.1063 -11.0793
   -10.7596 -10.7214 -10.6891 -10.6299 -10.6032 -10.5753 -10.5701 -10.5342
    -9.0459  -8.9514  -8.9099  -8.8354  -8.8257  -8.7563  -8.7271  -8.6841
    -8.3155  -8.2286  -8.1650  -8.0957  -8.0414  -7.9705  -7.9520  -7.9122
    -7.4758  -7.3574  -7.2768  -7.2456  -7.1904  -7.1266  -7.1113  -7.0775
    -7.0238  -6.9974  -6.9658  -6.9582  -6.9467  -6.9233  -6.9002  -6.8950
    -6.8842  -6.6860  -6.6540  -6.5977  -6.4489  -6.4081  -6.3096  -6.1950
    -5.9783  -5.9276  -5.8497  -5.7990  -5.7857  -5.7577  -5.6940  -5.6719
    -5.6331  -5.5862  -5.5171  -5.5031  -5.4783  -5.4540  -5.4243  -5.3857
    -5.3715  -5.3074  -5.2700  -5.2501  -5.2295  -5.2089  -5.1616  -5.1436
    -5.1345  -5.1018  -5.0832  -5.0771  -5.0336  -5.0185  -4.9821  -4.9657
    -4.8118  -4.6608  -4.5511  -4.5099  -4.4878  -4.3985  -4.3388  -4.1296
    -4.0056  -3.9621  -3.8954  -3.8622  -3.8523  -3.7756  -3.7707  -3.7387
    -3.5744  -3.3757  -3.3246  -3.3026  -3.1587  -3.0858  -3.0425  -3.0129
    -2.9377  -2.9017  -2.8309  -2.8042  -2.7753  -2.7000  -2.6603  -2.6220
    -2.6190  -2.4807  -2.4302  -2.3914  -2.3280  -2.3172  -2.2545  -2.1016
    -2.0651  -2.0245  -1.9963  -1.9298  -1.8982  -1.8555  -1.8093  -1.7769
    -1.7504  -1.7379  -1.6837  -1.6730  -1.6047  -1.5922  -1.5152  -1.4999
    -1.4562  -1.4025  -1.3920  -1.3348  -1.3298  -1.2930  -1.2413  -1.2232
    -1.2052  -1.1485  -1.0551  -0.9829  -0.9374  -0.8655  -0.7871  -0.7780
    -0.7174  -0.6683  -0.6284  -0.5786  -0.5003  -0.4766  -0.4645  -0.4481
    -0.4422  -0.4091  -0.3725  -0.3374  -0.3160  -0.2697  -0.2254  -0.2200
    -0.1877  -0.1518  -0.0916  -0.0846   1.1140   1.2223   1.2612   1.3047
     1.4339   1.4694   1.5643   1.6126   2.4976   2.5287   2.5741   2.6042
     2.6492   2.6675   2.7049   2.7293   3.2497   3.3014   3.3412   3.4387
     3.4572   3.5478   3.6039   3.6979   3.7344   4.0836   4.1174   4.2480
     4.5311   4.6149   4.7186   4.8607   4.8928   4.9463   5.0920   5.1165
     5.1930   5.2260   5.2846   5.3597   5.4011   5.4154   5.4465   5.5112
     5.5249   5.5777   5.6545   5.7173   5.7757   5.8437   5.9170   5.9443
     6.0287   6.0995   6.2269

     the spin up/dw Fermi energies are     1.0769    0.8282 ev

!    total energy              =   -1826.62825144 Ry
     Harris-Foulkes estimate   =   -1826.62825158 Ry
     estimated scf accuracy    <          8.2E-09 Ry

     The total energy is the sum of the following terms:

     one-electron contribution =   -2272.06967895 Ry
     hartree contribution      =    1316.71886451 Ry
     xc contribution           =    -573.79537380 Ry
     ewald contribution        =    -299.45223569 Ry
     Dispersion Correction     =      -0.62000027 Ry
     smearing contrib. (-TS)   =       2.59017275 Ry

     total magnetization       =     8.00 Bohr mag/cell
     absolute magnetization    =     8.24 Bohr mag/cell

     convergence has been achieved in  10 iterations

     Forces acting on atoms (cartesian axes, Ry/au):

     atom    1 type  1   force =    -0.00005488    0.00004095    0.00004690
     atom    2 type  1   force =     0.00024400   -0.00047153    0.00016696
     atom    3 type  1   force =     0.00008886   -0.00044211    0.00025292
     atom    4 type  1   force =     0.00057670    0.00047938   -0.00049420
     atom    5 type  1   force =    -0.00004905   -0.00007833    0.00010385
     atom    6 type  1   force =    -0.00016989    0.00024334    0.00004877
     atom    7 type  1   force =    -0.00009065   -0.00048376    0.00018717
     atom    8 type  1   force =     0.00010207    0.00034080    0.00015087
     atom    9 type  1   force =    -0.00028855    0.00016629   -0.00008062
     atom   10 type  1   force =     0.00015919   -0.00016060   -0.00018844
     atom   11 type  1   force =     0.00002076    0.00015766    0.00008207
     atom   12 type  1   force =     0.00002126   -0.00054256    0.00021821
     atom   13 type  1   force =     0.00028037   -0.00006537    0.00065280
     atom   14 type  1   force =    -0.00008654    0.00008598    0.00021114
     atom   15 type  1   force =     0.00024043   -0.00009809    0.00006401
     atom   16 type  1   force =    -0.00004887   -0.00018321    0.00023246
     atom   17 type  1   force =    -0.00003493   -0.00009651    0.00018829
     atom   18 type  1   force =    -0.00012071   -0.00010396    0.00003097
     atom   19 type  1   force =    -0.00023487    0.00005047   -0.00026935
     atom   20 type  1   force =     0.00041658   -0.00016493   -0.00009631
     atom   21 type  1   force =    -0.00004374    0.00006306   -0.00002422
     atom   22 type  1   force =    -0.00001642    0.00040346    0.00034252
     atom   23 type  1   force =     0.00035292   -0.00036088   -0.00024372
     atom   24 type  1   force =     0.00050904   -0.00007046    0.00040945
     atom   25 type  1   force =     0.00042117    0.00002362   -0.00000721
     atom   26 type  1   force =    -0.00003533   -0.00011376    0.00009328
     atom   27 type  1   force =    -0.00010486    0.00016561    0.00021505
     atom   28 type  1   force =     0.00038762    0.00034757   -0.00034228
     atom   29 type  1   force =    -0.00003361   -0.00031785   -0.00016405
     atom   30 type  1   force =    -0.00016477   -0.00006380   -0.00011569
     atom   31 type  1   force =     0.00013019   -0.00003753   -0.00023292
     atom   32 type  1   force =    -0.00010419    0.00038335   -0.00017878
     atom   33 type  1   force =     0.00037940    0.00001447   -0.00003256
     atom   34 type  1   force =    -0.00020698   -0.00015602    0.00031152
     atom   35 type  1   force =     0.00002810   -0.00049173    0.00011135
     atom   36 type  1   force =    -0.00003033    0.00002685    0.00014119
     atom   37 type  1   force =    -0.00035436   -0.00010855   -0.00027540
     atom   38 type  1   force =     0.00006261   -0.00013673   -0.00010074
     atom   39 type  1   force =    -0.00010514   -0.00013759   -0.00003832
     atom   40 type  1   force =     0.00027249    0.00023765   -0.00021958
     atom   41 type  1   force =    -0.00026225   -0.00002493   -0.00009887
     atom   42 type  1   force =     0.00024156    0.00029098   -0.00023363
     atom   43 type  1   force =    -0.00027251    0.00006597   -0.00014856
     atom   44 type  1   force =    -0.00010836    0.00017908    0.00014450
     atom   45 type  1   force =     0.00016234    0.00001354    0.00011190
     atom   46 type  1   force =    -0.00019830    0.00031337    0.00015762
     atom   47 type  1   force =    -0.00000390   -0.00019067   -0.00024020
     atom   48 type  1   force =     0.00021004    0.00009324    0.00005577
     atom   49 type  1   force =    -0.00024258    0.00023139   -0.00042828
     atom   50 type  1   force =     0.00000604   -0.00029095    0.00040977
     atom   51 type  1   force =     0.00013950    0.00025011   -0.00000109
     atom   52 type  1   force =    -0.00032463    0.00008216   -0.00034680
     atom   53 type  1   force =    -0.00039739    0.00002024   -0.00008600
     atom   54 type  1   force =    -0.00045260    0.00007919    0.00008597
     atom   55 type  1   force =     0.00022527    0.00002070   -0.00018049
     atom   56 type  1   force =     0.00014166    0.00010058   -0.00024831
     atom   57 type  1   force =     0.00000602    0.00057223   -0.00015916
     atom   58 type  1   force =    -0.00005549   -0.00021709    0.00001140
     atom   59 type  1   force =     0.00001377   -0.00026301   -0.00001787
     atom   60 type  1   force =    -0.00026572    0.00010449   -0.00011751
[...]
     atom  110 type  5   force =     0.00022005    0.00018912   -0.00030785
     atom  111 type  5   force =     0.00021971   -0.00006433    0.00034762
     atom  112 type  5   force =    -0.00013720   -0.00018430    0.00001669
     atom  113 type  5   force =    -0.00021485   -0.00034142   -0.00047809
     atom  114 type  5   force =     0.00027939    0.00013781   -0.00031027
     atom  115 type  5   force =     0.00046952   -0.00038489    0.00040462
     atom  116 type  5   force =     0.00003967   -0.00017435    0.00011428
     atom  117 type  5   force =    -0.00014532   -0.00040717   -0.00001326
     atom  118 type  5   force =     0.00060094   -0.00031410    0.00020573
     atom  119 type  5   force =    -0.00019206    0.00017098    0.00021734
     atom  120 type  5   force =     0.00026271    0.00006473   -0.00058457
     atom  121 type  5   force =     0.00015996    0.00074851    0.00053215
     atom  122 type  5   force =    -0.00027383   -0.00009601    0.00005581
     atom  123 type  5   force =     0.00004071    0.00046366   -0.00018676
     atom  124 type  5   force =    -0.00009152    0.00015668    0.00019414

     Total force =     0.004890     Total SCF correction =     0.000212

     bfgs converged in  72 scf cycles and  70 bfgs steps
     (criteria: energy <  1.0E-04 Ry, force <  1.0E-03 Ry/Bohr)

     End of BFGS Geometry Optimization

     Final energy   =   -1826.6282514438 Ry
Begin final coordinates

ATOMIC_POSITIONS (crystal)
C             0.2818245050        0.9724069899        0.5332582213
C             0.0501592151        0.0460207058        0.0109782303
C             0.3862922940        0.0161877507        0.5492061549
C             0.1524102703        1.0045020605        0.0332409500
C             0.4538621573        0.9714976112        0.6452576570
C             0.2174309946        0.0486330633        0.1355714414
C             0.2144241298        0.5480430527        0.5215133096
C             0.4639638498        0.4860381234        0.0406691392
C             0.2445550633        0.6261728886        0.6157456984
C             0.5003761843        0.4007984580        0.1169284802
C             0.2505226497        0.8904801511        0.6198414183
C             0.0112401604        0.1246518571        0.0937777299
C             0.4177438750        0.8881152235        0.7239105212
C             0.1735266669        0.1337632110        0.2104849510
C             0.0696636988        0.6458173341        0.6859140580
C             0.3312408766        0.3755437789        0.2058278815
C             0.0345570963        0.5649865841        0.6007125377
C             0.2885875543        0.4648068869        0.1349250170
C             0.1068362519        0.5096996508        0.5231246250
C             0.3574192833        0.5184277112        0.0476342016
C             0.4262461550        0.1040385194        0.4692961420
C             0.1893551767        0.9119969303        0.9589743006
C             0.0692976808        0.4115575566        0.4566629702
C             0.3174513241        0.6080817589        0.9696332364
C             0.7841576682        0.9649489038        0.5326254840
C             0.5523486291        0.0464116346        0.0024486016
C             0.8847109848        0.0153411215        0.5573214725
C             0.6533420550        1.0025136162        0.0270703950
C             0.9503937573        0.9741327053        0.6573402845
C             0.7191685958        0.0475609554        0.1282063230
C             0.7059165830        0.5266521267        0.5307182036
C             0.9455567850        0.4508210640        0.0139775187
C             0.7395439886        0.6135642825        0.6055921661
C             0.9814340050        0.3700808138        0.1016348134
C             0.7548318710        0.8784379109        0.6136169940
C             0.5153834049        0.1286476446        0.0817980463
C             0.9154999249        0.8881312568        0.7324019974
C             0.6773487434        0.1354367531        0.2000736516
C             0.5858385194        0.6062474114        0.7324557900
C             0.8300524751        0.3865075676        0.2285233874
C             0.5469569434        0.5154139416        0.6631897092
C             0.7900780760        0.4685607231        0.1489171148
C             0.6090785309        0.4771098924        0.5578220675
C             0.8480335306        0.5032111200        0.0420048804
C             0.9214337090        0.1065896346        0.4807529039
C             0.6886615631        0.9072914060        0.9564287544
C             0.5702825832        0.3891023345        0.4762152635
C             0.8104830167        0.5949598955        0.9655908521
C             0.2012437653       -0.0081645002        0.4420962057
C             0.1169616889       -0.0188584670        0.3813677021
C             0.3109659657        0.9967131852        0.1756341681
C             0.3826164618        0.9359996181        0.2091034666
C             0.2978630559        0.5282163391        0.4380580897
C             0.3823353891        0.5403086039        0.3825082687
C             0.1897738594        0.5070458898        0.1675368559
C             0.1090303070        0.5508336034        0.2049875711
C             0.7063729450       -0.0152109399        0.4381028212
C             0.6242479860       -0.0231448300        0.3724652134
C             0.8115363514        0.9946417723        0.1702067922
C             0.8832954186        0.9346104876        0.2051012101
[...]
O             0.3748785584        0.6544288640        0.8833168657
O             0.3708568269        0.1514349477        0.3793646620
O             0.1278472529        0.8641901827        0.8750123630
O             0.4746613385        0.3523913841        0.4841902671
O             0.2214163459        0.6448450401        0.9796654014
O             0.0154903882        0.1478789784        0.4995583475
O             0.2837729223        0.8721191558        0.9734030206
O             0.6278064054        0.3469312717        0.3867487744
O             0.8698873831        0.6408134658        0.8809767030
O             0.8660662572        0.1482332219        0.3868076982
O             0.6273608567        0.8587293974        0.8729657666
O             0.9720503920        0.3793167473        0.4684691607
O             0.7165903917        0.6352315475        0.9802682719
O             0.5237271879        0.1371052543        0.4830662298
O             0.7821840198        0.8655245931        0.9731233944
End final coordinates

     Writing output data file /nfs/hpc/share/gantzlen/NiPyC2_relax_sc211_meta_functionalized_C-C_vdw-df2_relax.save/

     General routines

     Parallel routines

   This run was terminated on:  16:13:39  31Jul2020

   JOB DONE.
QE finished Fri Jul 31 16:13:39 PDT 2020