     Program PWSCF v.6.5 starts on 29Jul2020 at 11:44:56

     K-points division:     npool     =       2
     R & G space division:  proc/nbgrp/npool/nimage =       8
     Reading input from ./QE_input_scripts/pw.NiPyC2_relax_sc211_meta_functionalized_C-N_vdw-df2_relax.in
Warning: card &CELL ignored
Warning: card    CELL_DYNAMICS = 'BFGS' ignored
Warning: card    CELL_DOFREE = 'XYZ' ignored
Warning: card / ignored

     Current dimensions of program PWSCF are:
     Max number of different atomic species (ntypx) = 10
     Max number of k-points (npk) =  40000
     Max angular momentum in pseudopotentials (lmaxx) =  3

     IMPORTANT: XC functional enforced from input :
     Exchange-correlation= VDW-DF2
                           (   1   4  13   0   2   0   0)
     Any further DFT definition will be discarded
     Please, verify this is what you really want

     Parameters for Dispersion (Grimme-D2) Correction:
       atom      VdW radius       C_6

        C          2.744         60.710
        H          1.892          4.857
        N          2.640         42.670
        Ni         2.952        374.666
        O          2.536         24.284

     gamma-point specific algorithms are used

     Subspace diagonalization in iterative solution of the eigenvalue problem:
     a serial algorithm will be used

     Found symmetry operation: I + ( -0.5000  0.0000  0.0000)
     This is a supercell, fractional translations are disabled

     bravais-lattice index     =            0
     lattice parameter (alat)  =      23.6322  a.u.
     unit-cell volume          =   10858.6228 (a.u.)^3
     number of atoms/cell      =          116
     number of atomic types    =            5
     number of electrons       =       464.00 (up: 236.00, down: 228.00)
     number of Kohn-Sham states=          283
     kinetic-energy cutoff     =     100.0000  Ry
     charge density cutoff     =     400.0000  Ry
     convergence threshold     =      1.0E-06
     mixing beta               =       0.7000
     number of iterations used =            8  local-TF  mixing
     Exchange-correlation= VDW-DF2
                           (   1   4  13   0   2   0   0)
     nstep                     =          200

     celldm(1)=  23.632159  celldm(2)=   0.000000  celldm(3)=   0.000000
     celldm(4)=   0.000000  celldm(5)=   0.000000  celldm(6)=   0.000000

     crystal axes: (cart. coord. in units of alat)
               a(1) = (   1.000000   0.000000   0.000000 )
               a(2) = (   0.000000   1.001423   0.000000 )
               a(3) = (  -0.018199   0.000000   0.821574 )

     reciprocal axes: (cart. coord. in units 2 pi/alat)
               b(1) = (  1.000000  0.000000  0.022152 )
               b(2) = (  0.000000  0.998579  0.000000 )
               b(3) = (  0.000000  0.000000  1.217175 )

     PseudoPot. # 1 for C  read from file:
     ./pseudo/C.pbesol-nc.UPF
     MD5 check sum: ce26087537ded160c8d400e183a8bf42
     Pseudo is Norm-conserving, Zval =  4.0
     Generated using "atomic" code by A. Dal Corso v.6.5
     Using radial grid of 1073 points,  1 beta functions with:
                l(1) =   1

     PseudoPot. # 2 for H  read from file:
     ./pseudo/H.pbesol-n-nc.UPF
     MD5 check sum: 7995ef24074557c85b430109caaacc09
     Pseudo is Norm-conserving, Zval =  1.0
     Generated using "atomic" code by A. Dal Corso v.6.5
     Using radial grid of  929 points,  0 beta functions with:

     PseudoPot. # 3 for N  read from file:
     ./pseudo/N.pbesol-nc.UPF
     MD5 check sum: e18cc5e4b8a5600c1a19b30c2cab1ca0
     Pseudo is Norm-conserving, Zval =  5.0
     Generated using "atomic" code by A. Dal Corso v.6.5
     Using radial grid of 1085 points,  1 beta functions with:
                l(1) =   1

     PseudoPot. # 4 for Ni read from file:
     ./pseudo/Ni.pbesol-n-nc.UPF
     MD5 check sum: 623411631e0c2eb7c0b2b9815547d2d9
     Pseudo is Norm-conserving + core correction, Zval = 10.0
     Generated using "atomic" code by A. Dal Corso v.6.5
     Using radial grid of 1195 points,  2 beta functions with:
                l(1) =   1
                l(2) =   2

     PseudoPot. # 5 for O  read from file:
     ./pseudo/O.pbesol-nc.UPF
     MD5 check sum: 73d10e7e91dbfcbe8a7e362101007f84
     Pseudo is Norm-conserving, Zval =  6.0
     Generated using "atomic" code by A. Dal Corso v.6.5
     Using radial grid of 1095 points,  1 beta functions with:
                l(1) =   1

     atomic species   valence    mass     pseudopotential
        C              4.00    12.01070     C ( 1.00)
        H              1.00     1.00794     H ( 1.00)
        N              5.00    14.00670     N ( 1.00)
        Ni            10.00    58.69340     Ni( 1.00)
        O              6.00    15.99940     O ( 1.00)

     Starting magnetic structure
     atomic species   magnetization
        C            0.000
        H            0.000
        N            0.000
        Ni           0.250
        O            0.000

     No symmetry found

   Cartesian axes

     site n.     atom                  positions (alat units)
         1           C   tau(   1) = (   0.2787122   0.9714307   0.4288486  )
         2           C   tau(   2) = (   0.0379730   0.0311503   0.0183277  )
         3           C   tau(   3) = (   0.3806882   0.0117868   0.4489838  )
         4           C   tau(   4) = (   0.1394042   0.9891499   0.0379124  )
         5           C   tau(   5) = (   0.4400787   0.9715829   0.5343281  )
         6           C   tau(   6) = (   0.1997920   0.0283934   0.1231482  )
         7           C   tau(   7) = (   0.1986011   0.5304580   0.4324635  )
         8           C   tau(   8) = (   0.4580372   0.4720800   0.0229252  )
         9           C   tau(   9) = (   0.2341003   0.6142040   0.4982314  )
        10           C   tau(  10) = (   0.4948422   0.3892302   0.0892369  )
        11           C   tau(  11) = (   0.2384981   0.8904717   0.4955761  )
        12           C   tau(  12) = (  -0.0008282   0.1123917   0.0856467  )
        13           C   tau(  13) = (   0.3947360   0.8906489   0.5977380  )
        14           C   tau(  14) = (   0.1557890   0.1097029   0.1871645  )
        15           C   tau(  15) = (   0.0756247   0.6098498   0.5975737  )
        16           C   tau(  16) = (   0.3367152   0.3921904   0.1884642  )
        17           C   tau(  17) = (   0.0350715   0.5258264   0.5351012  )
        18           C   tau(  18) = (   0.2948780   0.4753867   0.1254988  )
        19           C   tau(  19) = (   0.0981522   0.4849593   0.4519611  )
        20           C   tau(  20) = (   0.3569104   0.5163900   0.0416029  )
        21           C   tau(  21) = (   0.4248178   0.0994604   0.3833638  )
        22           C   tau(  22) = (   0.1639424   0.9010006   0.7933713  )
        23           C   tau(  23) = (   0.0588120   0.3950355   0.3866953  )
        24           C   tau(  24) = (   0.2984059   0.6050320   0.7961934  )
        25           C   tau(  25) = (   0.7787122   0.9714307   0.4288486  )
        26           C   tau(  26) = (   0.5379730   0.0311503   0.0183277  )
        27           C   tau(  27) = (   0.8806882   0.0117868   0.4489838  )
        28           C   tau(  28) = (   0.6394042   0.9891499   0.0379124  )
        29           C   tau(  29) = (   0.9400787   0.9715829   0.5343281  )
        30           C   tau(  30) = (   0.6997920   0.0283934   0.1231482  )
        31           C   tau(  31) = (   0.6986021   0.5304580   0.4324635  )
        32           C   tau(  32) = (   0.9580382   0.4720800   0.0229252  )
        33           C   tau(  33) = (   0.7341003   0.6142040   0.4982314  )
        34           C   tau(  34) = (   0.9948422   0.3892302   0.0892369  )
        35           C   tau(  35) = (   0.7384981   0.8904717   0.4955761  )
        36           C   tau(  36) = (   0.4991718   0.1123917   0.0856467  )
        37           C   tau(  37) = (   0.8947360   0.8906489   0.5977380  )
        38           C   tau(  38) = (   0.6557880   0.1097029   0.1871645  )
        39           C   tau(  39) = (   0.5756247   0.6098498   0.5975737  )
        40           C   tau(  40) = (   0.8367152   0.3921904   0.1884642  )
        41           C   tau(  41) = (   0.5350715   0.5258264   0.5351012  )
        42           C   tau(  42) = (   0.7948780   0.4753867   0.1254988  )
        43           C   tau(  43) = (   0.5981522   0.4849593   0.4519611  )
        44           C   tau(  44) = (   0.8569104   0.5163900   0.0416029  )
        45           C   tau(  45) = (   0.9248178   0.0994604   0.3833638  )
        46           C   tau(  46) = (   0.6639424   0.9010006   0.7933713  )
        47           C   tau(  47) = (   0.5588110   0.3950355   0.3866953  )
        48           C   tau(  48) = (   0.7984059   0.6050320   0.7961934  )
        49           C   tau(  49) = (   0.5464825   0.0063120   0.5609265  )
        50           C   tau(  50) = (   0.3058921   0.9922874   0.1490114  )
        51           C   tau(  51) = (   0.9297415   0.4857745   0.5601115  )
        52           C   tau(  52) = (   0.5094807   0.5076495   0.7592274  )
        53           C   tau(  53) = (   0.0464825   0.0063120   0.5609265  )
        54           C   tau(  54) = (   0.8058921   0.9922884   0.1490122  )
        55           C   tau(  55) = (   0.4297415   0.4857745   0.5601115  )
        56           C   tau(  56) = (   0.0094817   0.5076495   0.7592283  )
        57           H   tau(  57) = (   0.2290596   1.0009978   0.3640502  )
        58           H   tau(  58) = (   0.4693669   0.0026958   0.7751545  )
        59           H   tau(  59) = (   0.2505234   0.5016080   0.3691185  )
        60           H   tau(  60) = (   0.3118554   0.6514319   0.4868937  )
[...]
       102           O   tau( 102) = (   0.3551690   0.6519036   0.7240468  )
       103           O   tau( 103) = (   0.3707656   0.1477170   0.3098797  )
       104           O   tau( 104) = (   0.1091506   0.8535652   0.7199135  )
       105           O   tau( 105) = (   0.4642788   0.3566669   0.3968154  )
       106           O   tau( 106) = (   0.2033039   0.6423280   0.8050417  )
       107           O   tau( 107) = (   0.0200847   0.1353504   0.3952413  )
       108           O   tau( 108) = (   0.2588616   0.8639860   0.8046490  )
       109           O   tau( 109) = (   0.6158110   0.3481839   0.3145586  )
       110           O   tau( 110) = (   0.8551690   0.6519036   0.7240468  )
       111           O   tau( 111) = (   0.8707656   0.1477170   0.3098797  )
       112           O   tau( 112) = (   0.6091506   0.8535652   0.7199135  )
       113           O   tau( 113) = (   0.9642788   0.3566669   0.3968154  )
       114           O   tau( 114) = (   0.7033039   0.6423280   0.8050417  )
       115           O   tau( 115) = (   0.5200847   0.1353504   0.3952413  )
       116           O   tau( 116) = (   0.7588616   0.8639860   0.8046490  )

     number of k points=     1  Marzari-Vanderbilt smearing, width (Ry)=  0.2000
                       cart. coord. in units 2pi/alat
        k(    1) = (   0.0000000   0.0000000   0.0000000), wk =   1.0000000

     Check: negative core charge=   -0.000145

[...]
     atom:   53    charge:    0.8304    magn:    0.0033    constr:    0.0000
     atom:   54    charge:    0.8030    magn:    0.0031    constr:    0.0000
     atom:   55    charge:    0.8471    magn:    0.0018    constr:    0.0000
     atom:   56    charge:    0.7754    magn:    0.0016    constr:    0.0000
     atom:   57    charge:    0.4918    magn:   -0.0011    constr:    0.0000
     atom:   58    charge:    0.5059    magn:   -0.0011    constr:    0.0000
     atom:   59    charge:    0.5010    magn:   -0.0014    constr:    0.0000
     atom:   60    charge:    0.4794    magn:   -0.0004    constr:    0.0000
[...]
     atom:  102    charge:    3.1791    magn:    0.0532    constr:    0.0000
     atom:  103    charge:    3.1592    magn:    0.0535    constr:    0.0000
     atom:  104    charge:    3.1613    magn:    0.0519    constr:    0.0000
     atom:  105    charge:    3.1157    magn:    0.0469    constr:    0.0000
     atom:  106    charge:    2.4432    magn:    0.0451    constr:    0.0000
     atom:  107    charge:    3.2794    magn:    0.0541    constr:    0.0000
     atom:  108    charge:    3.1263    magn:    0.0511    constr:    0.0000
     atom:  109    charge:    3.2786    magn:    0.0502    constr:    0.0000
     atom:  110    charge:    3.1792    magn:    0.0531    constr:    0.0000
     atom:  111    charge:    3.1595    magn:    0.0534    constr:    0.0000
     atom:  112    charge:    3.1618    magn:    0.0519    constr:    0.0000
     atom:  113    charge:    3.1158    magn:    0.0469    constr:    0.0000
     atom:  114    charge:    2.4444    magn:    0.0450    constr:    0.0000
     atom:  115    charge:    3.2794    magn:    0.0541    constr:    0.0000
     atom:  116    charge:    3.1262    magn:    0.0512    constr:    0.0000

     End of self-consistent calculation

 ------ SPIN UP ------------

[...]

 ------ SPIN DOWN ----------

          k = 0.0000 0.0000 0.0000 ( 91663 PWs)   bands (ev):

   -21.7118 -21.7085 -21.6945 -21.6890 -21.5831 -21.5825 -21.5563 -21.5537
   -19.5205 -19.4875 -18.9054 -18.8954 -18.8761 -18.8634 -18.8465 -18.8402
   -18.8255 -18.8234 -18.8087 -18.7956 -18.7331 -18.7107 -18.7062 -18.6903
   -18.2534 -18.2320 -16.7596 -16.7400 -16.6968 -16.6967 -16.6854 -16.6642
   -15.6908 -15.6835 -15.4449 -15.4359 -15.2682 -15.2665 -15.2561 -15.2494
   -14.5917 -14.5638 -14.2599 -14.2569 -14.1619 -14.1198 -14.1156 -14.1105
   -12.1931 -12.1778 -11.7999 -11.7861 -11.6797 -11.6691 -11.6461 -11.6454
   -11.6139 -11.5997 -11.3644 -11.3054 -11.1676 -11.1307 -11.1258 -11.0915
    -9.8018  -9.7387  -9.2912  -9.2399  -9.2023  -9.1469  -9.1283  -9.1188
    -8.7148  -8.6878  -8.3998  -8.3810  -8.1591  -8.1068  -8.0951  -8.0917
    -7.9870  -7.9602  -7.6904  -7.6574  -7.6021  -7.5033  -7.4829  -7.3892
    -7.3816  -7.3742  -7.3605  -7.3249  -7.1908  -7.1222  -6.9404  -6.8506
    -6.8370  -6.7052  -6.4989  -6.4320  -6.3677  -6.3197  -6.3076  -6.2675
    -6.2312  -6.1673  -6.1317  -6.0996  -6.0339  -5.9883  -5.9640  -5.9532
    -5.9453  -5.9002  -5.8642  -5.8398  -5.8255  -5.8104  -5.7591  -5.6950
    -5.6357  -5.6217  -5.5881  -5.5783  -5.5339  -5.4813  -5.4796  -5.4460
    -5.4089  -5.3409  -5.1287  -5.0209  -4.9419  -4.8952  -4.8663  -4.7791
    -4.7408  -4.5811  -4.5256  -4.5046  -4.4275  -4.3582  -4.3556  -4.3445
    -4.3329  -4.2850  -4.0910  -4.0743  -3.9796  -3.8436  -3.7909  -3.7799
    -3.6878  -3.6353  -3.6207  -3.4678  -3.4587  -3.4377  -3.3925  -3.3370
    -3.2811  -3.1570  -3.1303  -3.1292  -3.1040  -3.0367  -3.0209  -2.9808
    -2.9534  -2.8712  -2.8024  -2.7822  -2.7607  -2.7471  -2.6713  -2.6480
    -2.6005  -2.5909  -2.5395  -2.5182  -2.4160  -2.3853  -2.3815  -2.3748
    -2.2697  -2.2632  -2.1772  -2.0848  -2.0613  -2.0345  -1.9981  -1.9926
    -1.9523  -1.9479  -1.9128  -1.8620  -1.8510  -1.8261  -1.7857  -1.7438
    -1.6650  -1.6382  -1.6291  -1.6211  -1.5061  -1.4904  -1.4704  -1.4449
    -1.4409  -1.3755  -1.3632  -1.3519  -1.1222  -1.0124  -0.9768  -0.9554
    -0.9420  -0.9021  -0.8971  -0.8791  -0.8105  -0.7762  -0.7118  -0.6815
    -0.6274  -0.6121   0.2605   0.5932   0.7568   0.7743   0.7870   0.8329
     1.0322   1.0516   1.1572   1.1881   1.7964   1.9652   2.2623   2.2963
     2.3551   2.4055   2.4253   2.4854   2.7363   2.7604   3.0898   3.1684
     3.2538   3.2649   3.2940   3.3167   3.5491   3.9962   4.2207   4.4571
     4.4709   4.5526   4.7760   4.7798   4.8019   4.8274   4.9113   4.9782
     4.9818   5.1412   5.1553   5.1639   5.2310   5.2360   5.3411   5.3584
     5.4294   5.4945   5.4965   5.6017   5.6499   5.7683   5.8966   5.9796
     6.0345   6.1266   6.1635

     the spin up/dw Fermi energies are     0.5935    0.3244 ev

!    total energy              =   -1886.01400445 Ry
     Harris-Foulkes estimate   =   -1886.01400421 Ry
     estimated scf accuracy    <          4.6E-09 Ry

     The total energy is the sum of the following terms:

     one-electron contribution =   -2428.37754550 Ry
     hartree contribution      =    1390.69493872 Ry
     xc contribution           =    -580.78404575 Ry
     ewald contribution        =    -270.12106823 Ry
     Dispersion Correction     =      -0.55817953 Ry
     smearing contrib. (-TS)   =       3.13189583 Ry

     total magnetization       =     8.00 Bohr mag/cell
     absolute magnetization    =     8.25 Bohr mag/cell

     convergence has been achieved in  11 iterations

     Forces acting on atoms (cartesian axes, Ry/au):

     atom    1 type  1   force =    -0.00024119    0.00059709    0.00017630
     atom    2 type  1   force =    -0.00046612   -0.00001485   -0.00005803
     atom    3 type  1   force =     0.00020344    0.00029499    0.00014801
     atom    4 type  1   force =     0.00032520    0.00003715   -0.00029502
     atom    5 type  1   force =    -0.00003584    0.00000936   -0.00005055
     atom    6 type  1   force =     0.00004833    0.00016164   -0.00022181
     atom    7 type  1   force =     0.00043189   -0.00027209    0.00000993
     atom    8 type  1   force =    -0.00006857    0.00026729    0.00001419
     atom    9 type  1   force =    -0.00021345   -0.00045469    0.00000633
     atom   10 type  1   force =    -0.00019526   -0.00005381   -0.00022517
     atom   11 type  1   force =     0.00023654   -0.00004468    0.00000926
     atom   12 type  1   force =     0.00091784   -0.00039790    0.00002991
     atom   13 type  1   force =    -0.00005137   -0.00009711    0.00001871
     atom   14 type  1   force =    -0.00047964    0.00018664   -0.00007562
     atom   15 type  1   force =     0.00012981   -0.00002572   -0.00011331
     atom   16 type  1   force =    -0.00010560    0.00023296   -0.00015430
     atom   17 type  1   force =    -0.00006092    0.00009115   -0.00023047
     atom   18 type  1   force =    -0.00018877    0.00001058   -0.00014043
     atom   19 type  1   force =     0.00016367    0.00000806    0.00014979
     atom   20 type  1   force =     0.00011653   -0.00006932    0.00011082
     atom   21 type  1   force =     0.00003708   -0.00030417   -0.00035812
     atom   22 type  1   force =     0.00033708   -0.00046904   -0.00052033
     atom   23 type  1   force =     0.00062974   -0.00031266   -0.00010811
     atom   24 type  1   force =    -0.00026642   -0.00039200    0.00023693
     atom   25 type  1   force =    -0.00008721   -0.00003819    0.00098632
     atom   26 type  1   force =     0.00001829   -0.00031221   -0.00014668
     atom   27 type  1   force =     0.00011015    0.00049525   -0.00014041
     atom   28 type  1   force =     0.00017152    0.00004850   -0.00042785
     atom   29 type  1   force =     0.00002355   -0.00012103    0.00013828
     atom   30 type  1   force =     0.00003175    0.00013393   -0.00033192
     atom   31 type  1   force =     0.00028288   -0.00023051    0.00012561
     atom   32 type  1   force =     0.00003362    0.00021062   -0.00004920
     atom   33 type  1   force =    -0.00001218   -0.00035999   -0.00007530
     atom   34 type  1   force =    -0.00016961   -0.00008264   -0.00016925
     atom   35 type  1   force =     0.00088470    0.00056500   -0.00022680
     atom   36 type  1   force =     0.00014190    0.00004533    0.00007410
     atom   37 type  1   force =     0.00002032    0.00014099   -0.00018241
     atom   38 type  1   force =    -0.00052307    0.00021493    0.00005733
     atom   39 type  1   force =     0.00016107    0.00005039   -0.00010548
     atom   40 type  1   force =    -0.00023347    0.00029295   -0.00014317
     atom   41 type  1   force =     0.00004403    0.00017662   -0.00019968
     atom   42 type  1   force =    -0.00004405    0.00004970   -0.00020918
     atom   43 type  1   force =     0.00026087    0.00002686    0.00009427
     atom   44 type  1   force =     0.00010850   -0.00018898    0.00022426
     atom   45 type  1   force =    -0.00001584   -0.00029539   -0.00038463
     atom   46 type  1   force =     0.00044524   -0.00042017   -0.00033894
     atom   47 type  1   force =     0.00057008   -0.00034818   -0.00004941
     atom   48 type  1   force =    -0.00028383   -0.00027741    0.00018310
     atom   49 type  1   force =     0.00022524    0.00006895    0.00006264
     atom   50 type  1   force =    -0.00014528   -0.00027711   -0.00022429
     atom   51 type  1   force =    -0.00006716    0.00028407    0.00007099
     atom   52 type  1   force =    -0.00037216    0.00018126    0.00011123
     atom   53 type  1   force =    -0.00009754   -0.00007048   -0.00004242
     atom   54 type  1   force =     0.00023487   -0.00041241   -0.00002441
     atom   55 type  1   force =    -0.00066979    0.00006380    0.00030810
     atom   56 type  1   force =    -0.00057907    0.00009261    0.00030635
     atom   57 type  2   force =     0.00000976    0.00014865    0.00046648
     atom   58 type  2   force =    -0.00050025    0.00006958   -0.00002977
     atom   59 type  2   force =     0.00025135   -0.00012486    0.00014256
     atom   60 type  2   force =    -0.00000659   -0.00008658   -0.00006973
[...]
     atom  102 type  5   force =     0.00001609   -0.00005429    0.00019529
     atom  103 type  5   force =    -0.00024350    0.00009629   -0.00021439
     atom  104 type  5   force =    -0.00015539    0.00028483    0.00016783
     atom  105 type  5   force =     0.00081951    0.00015932   -0.00026329
     atom  106 type  5   force =    -0.00035555   -0.00025539    0.00008921
     atom  107 type  5   force =     0.00041447   -0.00044163   -0.00022982
     atom  108 type  5   force =     0.00022893    0.00029770    0.00042312
     atom  109 type  5   force =    -0.00034560    0.00011959   -0.00037878
     atom  110 type  5   force =     0.00000967   -0.00017503    0.00032549
     atom  111 type  5   force =    -0.00025671    0.00007693   -0.00015500
     atom  112 type  5   force =    -0.00013073    0.00011304    0.00000283
     atom  113 type  5   force =     0.00068489    0.00009743   -0.00022663
     atom  114 type  5   force =    -0.00025709   -0.00030368    0.00012723
     atom  115 type  5   force =     0.00036999   -0.00044370   -0.00025664
     atom  116 type  5   force =     0.00019827    0.00029135    0.00038526

     Total force =     0.005787     Total SCF correction =     0.000166

     bfgs converged in  59 scf cycles and  58 bfgs steps
     (criteria: energy <  1.0E-04 Ry, force <  1.0E-03 Ry/Bohr)

     End of BFGS Geometry Optimization

     Final energy   =   -1886.0140044505 Ry
Begin final coordinates

ATOMIC_POSITIONS (crystal)
C             0.2905953417        0.9692390912        0.5216206659
C             0.0389460328        0.0273199365        0.0224736936
C             0.3904862874        0.0146199325        0.5484434355
C             0.1392917251        0.9831246248        0.0485446633
C             0.4532372453        0.9737440824        0.6538582998
C             0.2016500863        0.0224084236        0.1552770858
C             0.2055445593        0.5320375089        0.5215001871
C             0.4652002467        0.4768367391        0.0364486129
C             0.2410420063        0.6158486491        0.6045346714
C             0.4988439075        0.3866752693        0.1086078536
C             0.2549974495        0.8841786196        0.5976991721
C             0.0027868508        0.1113563436        0.0995744716
C             0.4108074825        0.8883222262        0.7278002358
C             0.1588227125        0.1068579002        0.2302374342
C             0.0842348705        0.6032393165        0.7345451672
C             0.3353987489        0.3824727409        0.2165809864
C             0.0424579436        0.5171563550        0.6427482070
C             0.2971911306        0.4715444003        0.1477600156
C             0.1067629716        0.4835483669        0.5410914340
C             0.3625120696        0.5213417934        0.0578079914
C             0.4304988782        0.1026295063        0.4692344354
C             0.1809933622        0.8982835302        0.9663785409
C             0.0689754969        0.3950268649        0.4590107180
C             0.3249094948        0.6143516684        0.9831898567
C             0.7905850550        0.9692498803        0.5215902724
C             0.5389246245        0.0273250108        0.0224660895
C             0.8904834073        0.0146105128        0.5484507019
C             0.6392813263        0.9831235886        0.0485405877
C             0.9532389123        0.9737455413        0.6538543536
C             0.7016376967        0.0224020777        0.1552742310
C             0.7055494529        0.5320362303        0.5214864891
C             0.9652008220        0.4768530644        0.0364645099
C             0.7410407177        0.6158426762        0.6045250712
C             0.9988501408        0.3866872727        0.1086148306
C             0.7549845228        0.8841694523        0.5977024541
C             0.5028026415        0.1113528073        0.0995622221
C             0.9108119975        0.8883123261        0.7278005182
C             0.6588149098        0.1068567233        0.2302205107
C             0.5842267746        0.6032329830        0.7345294902
C             0.8354075745        0.3824727746        0.2165860711
C             0.5424567316        0.5171479499        0.6427260861
C             0.7971871290        0.4715421035        0.1477598191
C             0.6067644989        0.4835456807        0.5410714197
C             0.8625073477        0.5213497787        0.0578021837
C             0.9305000636        0.1026199065        0.4692394196
C             0.6809837098        0.8982886904        0.9663553429
C             0.5689832973        0.3950285367        0.4589842102
C             0.8249018044        0.6143482839        0.9831829586
C             0.5527989324        0.0167310916        0.6924802014
C             0.3010568359        0.9787595547        0.1936578672
C             0.9449701720        0.4720595829        0.6758915597
C             0.5319404693        0.5196335417        0.9436063469
C             0.0528082259        0.0167393415        0.6924784631
C             0.8010458769        0.9787487251        0.1936418246
C             0.4449835409        0.4720483152        0.6758713790
C             0.0319533903        0.5196422338        0.9436268359
H             0.2394263485        0.9991183922        0.4452043825
H             0.4882828272       -0.0024121143        0.9454636864
H             0.2567520449        0.5049162139        0.4457846747
H             0.3166618734        0.6539453446        0.5878428655
[...]
O             0.3787150496        0.6550702521        0.8896248407
O             0.3704730601        0.1534133504        0.3861985979
O             0.1211718337        0.8445036994        0.8853866582
O             0.4723485244        0.3601508970        0.4682754187
O             0.2341337544        0.6578623007        1.0045401253
O             0.0283248645        0.1339090845        0.4764880838
O             0.2801698747        0.8725478265        0.9703249555
O             0.6276724226        0.3477344648        0.3755658877
O             0.8787090762        0.6550899698        0.8896152342
O             0.8704783006        0.1534014780        0.3861879362
O             0.6211669822        0.8445258600        0.8853738045
O             0.9723420268        0.3601614298        0.4682848576
O             0.7341189797        0.6578544711        1.0045200791
O             0.5283281769        0.1339131694        0.4764823953
O             0.7801647295        0.8725469459        0.9703243857
End final coordinates

     Writing output data file /nfs/hpc/share/gantzlen/NiPyC2_relax_sc211_meta_functionalized_C-N_vdw-df2_relax.save/

     General routines

     Parallel routines

   This run was terminated on:   1:45:35  31Jul2020

   JOB DONE.
QE finished Fri Jul 31 01:45:36 PDT 2020