     Program PWSCF v.6.5 starts on  1Aug2020 at 17:33:28

     K-points division:     npool     =       2
     R & G space division:  proc/nbgrp/npool/nimage =       8
     Reading input from ./QE_input_scripts/pw.NiPyC2_relax_sc211_ortho_functionalized_C-C_vdw-df2_relax.in
Warning: card &CELL ignored
Warning: card    CELL_DYNAMICS = 'BFGS' ignored
Warning: card    CELL_DOFREE = 'XYZ' ignored
Warning: card / ignored

     Current dimensions of program PWSCF are:
     Max number of different atomic species (ntypx) = 10
     Max number of k-points (npk) =  40000
     Max angular momentum in pseudopotentials (lmaxx) =  3

     IMPORTANT: XC functional enforced from input :
     Exchange-correlation= VDW-DF2
                           (   1   4  13   0   2   0   0)
     Any further DFT definition will be discarded
     Please, verify this is what you really want

     Parameters for Dispersion (Grimme-D2) Correction:
       atom      VdW radius       C_6

        C          2.744         60.710
        H          1.892          4.857
        N          2.640         42.670
        Ni         2.952        374.666
        O          2.536         24.284

     gamma-point specific algorithms are used

     Subspace diagonalization in iterative solution of the eigenvalue problem:
     a serial algorithm will be used

     bravais-lattice index     =            0
     lattice parameter (alat)  =      23.6322  a.u.
     unit-cell volume          =   10858.6228 (a.u.)^3
     number of atoms/cell      =          124
     number of atomic types    =            5
     number of electrons       =       464.00 (up: 236.00, down: 228.00)
     number of Kohn-Sham states=          283
     kinetic-energy cutoff     =     100.0000  Ry
     charge density cutoff     =     400.0000  Ry
     convergence threshold     =      1.0E-06
     mixing beta               =       0.7000
     number of iterations used =            8  local-TF  mixing
     Exchange-correlation= VDW-DF2
                           (   1   4  13   0   2   0   0)
     nstep                     =          200

     celldm(1)=  23.632159  celldm(2)=   0.000000  celldm(3)=   0.000000
     celldm(4)=   0.000000  celldm(5)=   0.000000  celldm(6)=   0.000000

     crystal axes: (cart. coord. in units of alat)
               a(1) = (   1.000000   0.000000   0.000000 )
               a(2) = (   0.000000   1.001423   0.000000 )
               a(3) = (  -0.018199   0.000000   0.821574 )

     reciprocal axes: (cart. coord. in units 2 pi/alat)
               b(1) = (  1.000000  0.000000  0.022152 )
               b(2) = (  0.000000  0.998579  0.000000 )
               b(3) = (  0.000000  0.000000  1.217175 )

     PseudoPot. # 1 for C  read from file:
     ./pseudo/C.pbesol-nc.UPF
     MD5 check sum: ce26087537ded160c8d400e183a8bf42
     Pseudo is Norm-conserving, Zval =  4.0
     Generated using "atomic" code by A. Dal Corso v.6.5
     Using radial grid of 1073 points,  1 beta functions with:
                l(1) =   1

     PseudoPot. # 2 for H  read from file:
     ./pseudo/H.pbesol-n-nc.UPF
     MD5 check sum: 7995ef24074557c85b430109caaacc09
     Pseudo is Norm-conserving, Zval =  1.0
     Generated using "atomic" code by A. Dal Corso v.6.5
     Using radial grid of  929 points,  0 beta functions with:

     PseudoPot. # 3 for N  read from file:
     ./pseudo/N.pbesol-nc.UPF
     MD5 check sum: e18cc5e4b8a5600c1a19b30c2cab1ca0
     Pseudo is Norm-conserving, Zval =  5.0
     Generated using "atomic" code by A. Dal Corso v.6.5
     Using radial grid of 1085 points,  1 beta functions with:
                l(1) =   1

     PseudoPot. # 4 for Ni read from file:
     ./pseudo/Ni.pbesol-n-nc.UPF
     MD5 check sum: 623411631e0c2eb7c0b2b9815547d2d9
     Pseudo is Norm-conserving + core correction, Zval = 10.0
     Generated using "atomic" code by A. Dal Corso v.6.5
     Using radial grid of 1195 points,  2 beta functions with:
                l(1) =   1
                l(2) =   2

     PseudoPot. # 5 for O  read from file:
     ./pseudo/O.pbesol-nc.UPF
     MD5 check sum: 73d10e7e91dbfcbe8a7e362101007f84
     Pseudo is Norm-conserving, Zval =  6.0
     Generated using "atomic" code by A. Dal Corso v.6.5
     Using radial grid of 1095 points,  1 beta functions with:
                l(1) =   1

     atomic species   valence    mass     pseudopotential
        C              4.00    12.01070     C ( 1.00)
        H              1.00     1.00794     H ( 1.00)
        N              5.00    14.00670     N ( 1.00)
        Ni            10.00    58.69340     Ni( 1.00)
        O              6.00    15.99940     O ( 1.00)

     Starting magnetic structure
     atomic species   magnetization
        C            0.000
        H            0.000
        N            0.000
        Ni           0.250
        O            0.000

     No symmetry found

   Cartesian axes

     site n.     atom                  positions (alat units)
         1           C   tau(   1) = (   0.2787122   0.9714307   0.4288486  )
         2           C   tau(   2) = (   0.0379730   0.0311503   0.0183277  )
         3           C   tau(   3) = (   0.3806882   0.0117868   0.4489838  )
         4           C   tau(   4) = (   0.1394042   0.9891499   0.0379124  )
         5           C   tau(   5) = (   0.4400787   0.9715829   0.5343281  )
         6           C   tau(   6) = (   0.1997920   0.0283934   0.1231482  )
         7           C   tau(   7) = (   0.1986011   0.5304580   0.4324635  )
         8           C   tau(   8) = (   0.4580372   0.4720800   0.0229252  )
         9           C   tau(   9) = (   0.2341003   0.6142040   0.4982314  )
        10           C   tau(  10) = (   0.4948422   0.3892302   0.0892369  )
        11           C   tau(  11) = (   0.2384981   0.8904717   0.4955761  )
        12           C   tau(  12) = (  -0.0008282   0.1123917   0.0856467  )
        13           C   tau(  13) = (   0.3947360   0.8906489   0.5977380  )
        14           C   tau(  14) = (   0.1557890   0.1097029   0.1871645  )
        15           C   tau(  15) = (   0.0756247   0.6098498   0.5975737  )
        16           C   tau(  16) = (   0.3367152   0.3921904   0.1884642  )
        17           C   tau(  17) = (   0.0350715   0.5258264   0.5351012  )
        18           C   tau(  18) = (   0.2948780   0.4753867   0.1254988  )
        19           C   tau(  19) = (   0.0981522   0.4849593   0.4519611  )
        20           C   tau(  20) = (   0.3569104   0.5163900   0.0416029  )
        21           C   tau(  21) = (   0.4248178   0.0994604   0.3833638  )
        22           C   tau(  22) = (   0.1639424   0.9010006   0.7933713  )
        23           C   tau(  23) = (   0.0588120   0.3950355   0.3866953  )
        24           C   tau(  24) = (   0.2984059   0.6050320   0.7961934  )
        25           C   tau(  25) = (   0.7787122   0.9714307   0.4288486  )
        26           C   tau(  26) = (   0.5379730   0.0311503   0.0183277  )
        27           C   tau(  27) = (   0.8806882   0.0117868   0.4489838  )
        28           C   tau(  28) = (   0.6394042   0.9891499   0.0379124  )
        29           C   tau(  29) = (   0.9400787   0.9715829   0.5343281  )
        30           C   tau(  30) = (   0.6997920   0.0283934   0.1231482  )
        31           C   tau(  31) = (   0.6986021   0.5304580   0.4324635  )
        32           C   tau(  32) = (   0.9580382   0.4720800   0.0229252  )
        33           C   tau(  33) = (   0.7341003   0.6142040   0.4982314  )
        34           C   tau(  34) = (   0.9948422   0.3892302   0.0892369  )
        35           C   tau(  35) = (   0.7384981   0.8904717   0.4955761  )
        36           C   tau(  36) = (   0.4991718   0.1123917   0.0856467  )
        37           C   tau(  37) = (   0.8947360   0.8906489   0.5977380  )
        38           C   tau(  38) = (   0.6557880   0.1097029   0.1871645  )
        39           C   tau(  39) = (   0.5756247   0.6098498   0.5975737  )
        40           C   tau(  40) = (   0.8367152   0.3921904   0.1884642  )
        41           C   tau(  41) = (   0.5350715   0.5258264   0.5351012  )
        42           C   tau(  42) = (   0.7948780   0.4753867   0.1254988  )
        43           C   tau(  43) = (   0.5981522   0.4849593   0.4519611  )
        44           C   tau(  44) = (   0.8569104   0.5163900   0.0416029  )
        45           C   tau(  45) = (   0.9248178   0.0994604   0.3833638  )
        46           C   tau(  46) = (   0.6639424   0.9010006   0.7933713  )
        47           C   tau(  47) = (   0.5588110   0.3950355   0.3866953  )
        48           C   tau(  48) = (   0.7984059   0.6050320   0.7961934  )
        49           C   tau(  49) = (   0.1372737   0.8474956   0.4766790  )
        50           C   tau(  50) = (   0.0517450   0.8103918   0.4616335  )
        51           C   tau(  51) = (   0.8988416   0.1574788   0.0667849  )
        52           C   tau(  52) = (   0.8140979   0.1963601   0.0517855  )
        53           C   tau(  53) = (   0.3334486   0.6615313   0.4801132  )
        54           C   tau(  54) = (   0.4173907   0.7023162   0.4656658  )
        55           C   tau(  55) = (   0.5951253   0.3436494   0.0714934  )
        56           C   tau(  56) = (   0.6798275   0.3043396   0.0573993  )
        57           C   tau(  57) = (   0.6375248   0.8470700   0.4763142  )
        58           C   tau(  58) = (   0.5522069   0.8096077   0.4609607  )
        59           C   tau(  59) = (   0.3988416   0.1574788   0.0667849  )
        60           C   tau(  60) = (   0.3140979   0.1963601   0.0517855  )
[...]
       110           O   tau( 110) = (   0.3551690   0.6519036   0.7240468  )
       111           O   tau( 111) = (   0.3707656   0.1477170   0.3098797  )
       112           O   tau( 112) = (   0.1091506   0.8535652   0.7199135  )
       113           O   tau( 113) = (   0.4642788   0.3566669   0.3968154  )
       114           O   tau( 114) = (   0.2033039   0.6423280   0.8050417  )
       115           O   tau( 115) = (   0.0200847   0.1353504   0.3952413  )
       116           O   tau( 116) = (   0.2588616   0.8639860   0.8046490  )
       117           O   tau( 117) = (   0.6158110   0.3481839   0.3145586  )
       118           O   tau( 118) = (   0.8551690   0.6519036   0.7240468  )
       119           O   tau( 119) = (   0.8707656   0.1477170   0.3098797  )
       120           O   tau( 120) = (   0.6091506   0.8535652   0.7199135  )
       121           O   tau( 121) = (   0.9642788   0.3566669   0.3968154  )
       122           O   tau( 122) = (   0.7033039   0.6423280   0.8050417  )
       123           O   tau( 123) = (   0.5200847   0.1353504   0.3952413  )
       124           O   tau( 124) = (   0.7588616   0.8639860   0.8046490  )

     number of k points=     1  Marzari-Vanderbilt smearing, width (Ry)=  0.2000
                       cart. coord. in units 2pi/alat
        k(    1) = (   0.0000000   0.0000000   0.0000000), wk =   1.0000000

     Check: negative core charge=   -0.000145

     Initial potential from superposition of free atoms

     starting charge  463.99604, renormalised to  464.00000

[...]
     atom:   53    charge:    0.6517    magn:    0.0060    constr:    0.0000
     atom:   54    charge:    0.2490    magn:    0.0045    constr:    0.0000
     atom:   55    charge:    0.6531    magn:    0.0062    constr:    0.0000
     atom:   56    charge:    0.2149    magn:    0.0039    constr:    0.0000
     atom:   57    charge:    0.6599    magn:    0.0061    constr:    0.0000
     atom:   58    charge:    0.2733    magn:    0.0049    constr:    0.0000
     atom:   59    charge:    0.6169    magn:    0.0061    constr:    0.0000
     atom:   60    charge:    0.1877    magn:    0.0032    constr:    0.0000
[...]
     atom:  110    charge:    3.0688    magn:    0.0215    constr:    0.0000
     atom:  111    charge:    3.1549    magn:    0.0475    constr:    0.0000
     atom:  112    charge:    3.0758    magn:    0.0454    constr:    0.0000
     atom:  113    charge:    3.0563    magn:    0.0473    constr:    0.0000
     atom:  114    charge:    2.9979    magn:    0.0180    constr:    0.0000
     atom:  115    charge:    3.2767    magn:    0.0518    constr:    0.0000
     atom:  116    charge:    3.0959    magn:    0.0460    constr:    0.0000
     atom:  117    charge:    3.1157    magn:    0.0464    constr:    0.0000
     atom:  118    charge:    3.0338    magn:    0.0458    constr:    0.0000
     atom:  119    charge:    3.2128    magn:    0.0497    constr:    0.0000
     atom:  120    charge:    3.0587    magn:    0.0481    constr:    0.0000
     atom:  121    charge:    3.1326    magn:    0.0496    constr:    0.0000
     atom:  122    charge:    2.9749    magn:    0.0453    constr:    0.0000
     atom:  123    charge:    3.2187    magn:    0.0513    constr:    0.0000
     atom:  124    charge:    3.1066    magn:    0.0500    constr:    0.0000

     End of self-consistent calculation

 ------ SPIN UP ------------

[...]

 ------ SPIN DOWN ----------

          k = 0.0000 0.0000 0.0000 ( 91663 PWs)   bands (ev):

   -22.0559 -21.2093 -21.2035 -21.1838 -21.1450 -21.0682 -21.0542 -21.0465
   -20.3082 -18.4512 -18.4448 -18.4120 -18.4008 -18.3816 -18.3774 -18.3717
   -18.3651 -18.3567 -18.3546 -18.3377 -18.2909 -18.2762 -18.2599 -18.2565
   -15.1118 -14.8169 -14.7880 -14.7552 -14.7448 -14.7346 -14.7248 -14.7178
   -14.6825 -14.5700 -14.5104 -14.4739 -14.4402 -14.4160 -14.3542 -14.3274
   -13.3398 -13.0107 -12.9594 -12.9204 -12.8631 -12.8343 -12.7604 -12.7332
   -11.5624 -11.2037 -11.1242 -11.1096 -11.0904 -11.0617 -11.0193 -11.0079
   -10.7903 -10.7041 -10.5573 -10.5247 -10.4872 -10.4811 -10.4690 -10.4150
    -9.7292  -9.4796  -9.3416  -9.2838  -9.2181  -9.1814  -9.1151  -9.0959
    -8.6600  -8.1049  -8.0615  -8.0339  -7.9421  -7.7604  -7.5563  -7.5449
    -7.5118  -7.3518  -7.2016  -7.0702  -7.0560  -7.0185  -7.0107  -6.9865
    -6.9782  -6.9592  -6.9392  -6.8823  -6.7854  -6.7558  -6.7318  -6.7007
    -6.6786  -6.6289  -6.5594  -6.5098  -6.4977  -6.4807  -6.4642  -6.4447
    -6.4060  -5.9589  -5.8705  -5.8414  -5.8068  -5.7521  -5.7374  -5.7134
    -5.6635  -5.6501  -5.6205  -5.5932  -5.5531  -5.5238  -5.5106  -5.4943
    -5.4847  -5.4341  -5.3783  -5.3226  -5.2499  -5.2327  -5.1820  -5.1751
    -5.1341  -5.0981  -5.0689  -5.0489  -5.0359  -4.9911  -4.9645  -4.8509
    -4.8344  -4.7385  -4.6735  -4.6411  -4.5601  -4.4947  -4.4812  -4.4315
    -4.1498  -3.9999  -3.8988  -3.8236  -3.8174  -3.7723  -3.7589  -3.7511
    -3.7168  -3.4981  -3.3832  -3.3146  -3.2988  -3.1325  -2.9764  -2.9508
    -2.9232  -2.8726  -2.8573  -2.8315  -2.7167  -2.6957  -2.6169  -2.6033
    -2.5222  -2.4186  -2.3536  -2.3180  -2.2714  -2.2286  -2.2125  -2.1917
    -2.0930  -2.0889  -2.0391  -1.9857  -1.9721  -1.9501  -1.9062  -1.8602
    -1.8008  -1.7347  -1.7054  -1.6833  -1.6399  -1.6046  -1.5888  -1.5604
    -1.5450  -1.5174  -1.4873  -1.4594  -1.4525  -1.4086  -1.3802  -1.3684
    -1.3244  -1.2995  -1.2573  -1.1976  -1.1542  -1.1259  -1.0259  -0.9934
    -0.9186  -0.8414  -0.7611  -0.7133  -0.5951  -0.5725  -0.5470  -0.5124
    -0.4891  -0.4719  -0.4438  -0.4266  -0.3502  -0.2492  -0.2322  -0.2048
    -0.1587  -0.0859  -0.0270   0.9093   1.2147   1.2333   1.2792   1.3062
     1.3441   1.4326   1.4571   1.5341   2.2376   2.6342   2.6417   2.6713
     2.7025   2.7294   2.7909   2.8108   3.1372   3.2464   3.3800   3.4034
     3.5217   3.5503   3.6262   3.6312   3.6919   4.0661   4.2537   4.2801
     4.5427   4.6537   4.7300   4.7937   4.8052   4.8549   4.8744   4.9379
     4.9967   5.0123   5.0638   5.1346   5.2064   5.2159   5.2456   5.2768
     5.3139   5.6947   5.8426   5.8919   6.0449   6.1107   6.2183   6.3105
     6.3860   6.4313   6.4456

     the spin up/dw Fermi energies are     1.0429    0.7837 ev

!    total energy              =   -1826.66845246 Ry
     Harris-Foulkes estimate   =   -1826.66845249 Ry
     estimated scf accuracy    <          2.1E-09 Ry

     The total energy is the sum of the following terms:

     one-electron contribution =   -2237.74145442 Ry
     hartree contribution      =    1298.87789637 Ry
     xc contribution           =    -573.87255447 Ry
     ewald contribution        =    -316.01120769 Ry
     Dispersion Correction     =      -0.60403579 Ry
     smearing contrib. (-TS)   =       2.68290354 Ry

     total magnetization       =     8.00 Bohr mag/cell
     absolute magnetization    =     8.25 Bohr mag/cell

     convergence has been achieved in  11 iterations

     Forces acting on atoms (cartesian axes, Ry/au):

     atom    1 type  1   force =    -0.00006866   -0.00031853   -0.00003108
     atom    2 type  1   force =     0.00023006    0.00003190   -0.00004050
     atom    3 type  1   force =     0.00020646   -0.00032936    0.00021364
     atom    4 type  1   force =     0.00010217   -0.00024237    0.00032133
     atom    5 type  1   force =     0.00036212   -0.00009945    0.00033196
     atom    6 type  1   force =     0.00022625   -0.00010152    0.00017724
     atom    7 type  1   force =     0.00002063    0.00018743    0.00030823
     atom    8 type  1   force =     0.00007052   -0.00060110    0.00000242
     atom    9 type  1   force =    -0.00024229    0.00008984    0.00016002
     atom   10 type  1   force =     0.00040059   -0.00009331   -0.00012555
     atom   11 type  1   force =    -0.00002333    0.00000347    0.00016430
     atom   12 type  1   force =     0.00005366   -0.00027050    0.00003264
     atom   13 type  1   force =     0.00004243    0.00012250    0.00030661
     atom   14 type  1   force =    -0.00029789   -0.00012794    0.00015130
     atom   15 type  1   force =    -0.00040050    0.00004349    0.00001881
     atom   16 type  1   force =    -0.00010116   -0.00019518   -0.00012848
     atom   17 type  1   force =     0.00015413   -0.00002778   -0.00016351
     atom   18 type  1   force =    -0.00020692   -0.00048349   -0.00025473
     atom   19 type  1   force =    -0.00022424    0.00021609   -0.00005018
     atom   20 type  1   force =    -0.00009043    0.00008747    0.00008820
     atom   21 type  1   force =    -0.00035344   -0.00051449    0.00023360
     atom   22 type  1   force =    -0.00014439   -0.00000789   -0.00009884
     atom   23 type  1   force =     0.00009008   -0.00001526   -0.00014312
     atom   24 type  1   force =    -0.00021841    0.00008537    0.00081091
     atom   25 type  1   force =    -0.00018383    0.00022449    0.00042793
     atom   26 type  1   force =     0.00010431    0.00013107    0.00040602
     atom   27 type  1   force =    -0.00005858    0.00007117   -0.00022299
     atom   28 type  1   force =    -0.00010348   -0.00007452   -0.00025876
     atom   29 type  1   force =    -0.00017348    0.00031887   -0.00021776
     atom   30 type  1   force =    -0.00015915    0.00031834   -0.00051582
     atom   31 type  1   force =     0.00004729    0.00038147   -0.00020350
     atom   32 type  1   force =    -0.00012742    0.00020538    0.00027906
     atom   33 type  1   force =    -0.00019271    0.00009900   -0.00057450
     atom   34 type  1   force =    -0.00013666    0.00009417   -0.00005896
     atom   35 type  1   force =    -0.00005427   -0.00018149    0.00013779
     atom   36 type  1   force =    -0.00024102    0.00010221    0.00018607
     atom   37 type  1   force =     0.00014819   -0.00019798   -0.00024298
     atom   38 type  1   force =     0.00048178   -0.00008882   -0.00018204
     atom   39 type  1   force =    -0.00017165    0.00030211    0.00031445
     atom   40 type  1   force =    -0.00055997   -0.00000517   -0.00023702
     atom   41 type  1   force =    -0.00064332    0.00038864   -0.00031949
     atom   42 type  1   force =    -0.00003403    0.00010370   -0.00031004
     atom   43 type  1   force =    -0.00016229   -0.00013002    0.00008731
     atom   44 type  1   force =    -0.00011374    0.00040076    0.00045588
     atom   45 type  1   force =    -0.00033566   -0.00053198   -0.00035865
     atom   46 type  1   force =     0.00013431   -0.00013047   -0.00011215
     atom   47 type  1   force =     0.00009087    0.00068535    0.00051027
     atom   48 type  1   force =    -0.00020395    0.00015519    0.00011376
     atom   49 type  1   force =    -0.00031622   -0.00018124    0.00012391
     atom   50 type  1   force =     0.00013422   -0.00019841    0.00002461
     atom   51 type  1   force =     0.00037023   -0.00029430   -0.00030890
     atom   52 type  1   force =    -0.00035629    0.00006588    0.00013218
     atom   53 type  1   force =     0.00000231   -0.00036641   -0.00042129
     atom   54 type  1   force =     0.00005648   -0.00008644    0.00018702
     atom   55 type  1   force =    -0.00024800   -0.00016374   -0.00012017
     atom   56 type  1   force =     0.00020728    0.00039618    0.00002202
     atom   57 type  1   force =     0.00020786    0.00024638    0.00004455
     atom   58 type  1   force =    -0.00041044    0.00004078    0.00001786
     atom   59 type  1   force =     0.00006458   -0.00054237    0.00002936
     atom   60 type  1   force =    -0.00007887    0.00008372    0.00013331
[...]
     atom  110 type  5   force =     0.00051686   -0.00080890    0.00008953
     atom  111 type  5   force =     0.00041377    0.00025018    0.00019021
     atom  112 type  5   force =     0.00024188   -0.00011599    0.00006999
     atom  113 type  5   force =    -0.00003433   -0.00039148   -0.00059881
     atom  114 type  5   force =     0.00032701    0.00051779   -0.00065803
     atom  115 type  5   force =     0.00059699    0.00011066    0.00030420
     atom  116 type  5   force =     0.00057233   -0.00081419    0.00007256
     atom  117 type  5   force =     0.00041607    0.00024803    0.00010973
     atom  118 type  5   force =    -0.00036620    0.00003308    0.00015087
     atom  119 type  5   force =    -0.00051464   -0.00028942    0.00028474
     atom  120 type  5   force =    -0.00009663    0.00049431   -0.00046114
     atom  121 type  5   force =     0.00021841    0.00021771    0.00009402
     atom  122 type  5   force =     0.00016018    0.00015572    0.00001046
     atom  123 type  5   force =     0.00022596   -0.00036120   -0.00001240
     atom  124 type  5   force =     0.00012096    0.00006126   -0.00009715

     Total force =     0.005798     Total SCF correction =     0.000111

     bfgs converged in  70 scf cycles and  67 bfgs steps
     (criteria: energy <  1.0E-04 Ry, force <  1.0E-03 Ry/Bohr)

     End of BFGS Geometry Optimization

     Final energy   =   -1826.6684524592 Ry
Begin final coordinates

ATOMIC_POSITIONS (crystal)
C             0.2845297709        0.9833277916        0.5304760235
C             0.0417638479        0.0166413626        0.0338729649
C             0.3833894537        0.0272322162        0.5653701908
C             0.1422404774        0.9767453885        0.0682285215
C             0.4399109672        0.9877337789        0.6741547447
C             0.2002752860        0.0222647160        0.1721139846
C             0.1973301352        0.5165182131        0.5388808989
C             0.4319071837        0.4625505926        0.0297462713
C             0.2392084276        0.6023299923        0.6126243063
C             0.4820362330        0.3847314364        0.1082758021
C             0.2455588857        0.8956355484        0.6017793430
C             0.0014890089        0.1056538965        0.1009884250
C             0.3964924185        0.9019033131        0.7426459694
C             0.1558157255        0.1099189347        0.2364364875
C             0.0814608009        0.6107281112        0.7327866580
C             0.3419032698        0.3948999331        0.2566996366
C             0.0349143498        0.5271422633        0.6605047206
C             0.2949303910        0.4810370679        0.1898340962
C             0.0947046841        0.4797453149        0.5625004940
C             0.3421750800        0.5159063545        0.0745790795
C             0.4311714703        0.1080648977        0.4813488775
C             0.1860785958        0.8928457024        0.9860802253
C             0.0527237290        0.3929692562        0.4803269222
C             0.2961469026        0.6012705320        0.9971094894
C             0.7946233669        0.9818550727        0.5312677683
C             0.5475558792        0.0209244522        0.0321425888
C             0.8959518904        0.0211423598        0.5620769800
C             0.6485422914        0.9818352126        0.0646500822
C             0.9539917445        0.9781677482        0.6676036323
C             0.7049781960        0.0239825560        0.1719265457
C             0.7246483054        0.5184421738        0.5375309906
C             0.9567252064        0.4883992655        0.0379557148
C             0.7572909451        0.6072976805        0.6111558724
C             0.9945891212        0.3975652695        0.1060468818
C             0.7530601287        0.8965507816        0.6043083250
C             0.5040082629        0.1047306211        0.1057016857
C             0.9087939103        0.8931619314        0.7368046540
C             0.6581163635        0.1076549521        0.2412799224
C             0.6004053578        0.6006876621        0.7343579493
C             0.8419561371        0.3971225677        0.2355462606
C             0.5648628168        0.5084364204        0.6663186715
C             0.8002253394        0.4874137165        0.1711641895
C             0.6262142074        0.4705879607        0.5642179986
C             0.8583567029        0.5316998413        0.0696212001
C             0.9395512124        0.1039318565        0.4776085825
C             0.6936220236        0.9006545474        0.9791805698
C             0.5814200391        0.3854215572        0.4812625392
C             0.8154505798        0.6178702888        0.9878434842
C             0.1505677439        0.8472739194        0.5583583991
C             0.0688277946        0.8124849395        0.5082048384
C             0.9042271001        0.1460242619        0.0529055227
C             0.8238907226        0.1582964437       -0.0144121316
C             0.3394622448        0.6397190345        0.5761611283
C             0.4224474587        0.6519247383        0.5184633846
C             0.5825340673        0.3515882912        0.0671384582
C             0.6660595368        0.3472711354        0.0089696746
C             0.6516917608        0.8604983085        0.5650028958
C             0.5662783938        0.8516531518        0.5070253897
C             0.4045071577        0.1417098215        0.0605517654
C             0.3232656056        0.1498251161       -0.0061162149
[...]
O             0.3636008795        0.6412326249        0.8921278314
O             0.3762633843        0.1536676127        0.3884058582
O             0.1266050029        0.8521941789        0.8927271471
O             0.4842592836        0.3540086507        0.4936268322
O             0.2069709948        0.6403274709        0.9968019362
O             0.0362607298        0.1358906031        0.4857194275
O             0.2820859493        0.8584960339        0.9960310319
O             0.6341258471        0.3409670541        0.3890915955
O             0.8720452674        0.6595392804        0.8966850705
O             0.8798956258        0.1470852535        0.3864432078
O             0.6341251530        0.8596200449        0.8858805713
O             0.9589615901        0.3543607609        0.4911111551
O             0.7195257886        0.6525964955        0.9974878288
O             0.5298327734        0.1346453965        0.4923595413
O             0.7896654013        0.8675431294        0.9890351224
End final coordinates

     Writing output data file /nfs/hpc/share/gantzlen/NiPyC2_relax_sc211_ortho_functionalized_C-C_vdw-df2_relax.save/

     General routines

     Parallel routines

   This run was terminated on:  14:56:51   2Aug2020

   JOB DONE.
QE finished Sun Aug 2 14:56:51 PDT 2020