     Program PWSCF v.6.5 starts on  5Jul2020 at 11: 5:32

     K-points division:     npool     =       2
     R & G space division:  proc/nbgrp/npool/nimage =       8
     Reading input from ./QE_input_scripts/pw.NiPyC2_relax_sc211_meta_functionalized_CH-S_pbesol_relax_frozen_parent_atoms.in
Warning: card &CELL ignored
Warning: card    CELL_DYNAMICS = 'BFGS' ignored
Warning: card    CELL_DOFREE = 'XYZ' ignored
Warning: card / ignored

     Current dimensions of program PWSCF are:
     Max number of different atomic species (ntypx) = 10
     Max number of k-points (npk) =  40000
     Max angular momentum in pseudopotentials (lmaxx) =  3

     Parameters for Dispersion (Grimme-D2) Correction:
       atom      VdW radius       C_6

        C          2.744         60.710
        H          1.892          4.857
        N          2.640         42.670
        Ni         2.952        374.666
        O          2.536         24.284
        S          3.180        193.230

     gamma-point specific algorithms are used

     Subspace diagonalization in iterative solution of the eigenvalue problem:
     a serial algorithm will be used

     bravais-lattice index     =            0
     lattice parameter (alat)  =      23.6322  a.u.
     unit-cell volume          =   10858.6228 (a.u.)^3
     number of atoms/cell      =          124
     number of atomic types    =            6
     number of electrons       =       480.00 (up: 244.00, down: 236.00)
     number of Kohn-Sham states=          293
     kinetic-energy cutoff     =     100.0000  Ry
     charge density cutoff     =     400.0000  Ry
     convergence threshold     =      5.0E-06
     mixing beta               =       0.7000
     number of iterations used =            8  local-TF  mixing
     Exchange-correlation= PBESOL
                           (   1   4  10   8   0   0   0)
     nstep                     =          200

     celldm(1)=  23.632159  celldm(2)=   0.000000  celldm(3)=   0.000000
     celldm(4)=   0.000000  celldm(5)=   0.000000  celldm(6)=   0.000000

     crystal axes: (cart. coord. in units of alat)
               a(1) = (   1.000000   0.000000   0.000000 )
               a(2) = (   0.000000   1.001423   0.000000 )
               a(3) = (  -0.018199   0.000000   0.821574 )

     reciprocal axes: (cart. coord. in units 2 pi/alat)
               b(1) = (  1.000000  0.000000  0.022152 )
               b(2) = (  0.000000  0.998579  0.000000 )
               b(3) = (  0.000000  0.000000  1.217175 )

     PseudoPot. # 1 for C  read from file:
     ./pseudo/C.pbesol-nc.UPF
     MD5 check sum: ce26087537ded160c8d400e183a8bf42
     Pseudo is Norm-conserving, Zval =  4.0
     Generated using "atomic" code by A. Dal Corso v.6.5
     Using radial grid of 1073 points,  1 beta functions with:
                l(1) =   1

     PseudoPot. # 2 for H  read from file:
     ./pseudo/H.pbesol-n-nc.UPF
     MD5 check sum: 7995ef24074557c85b430109caaacc09
     Pseudo is Norm-conserving, Zval =  1.0
     Generated using "atomic" code by A. Dal Corso v.6.5
     Using radial grid of  929 points,  0 beta functions with:

     PseudoPot. # 3 for N  read from file:
     ./pseudo/N.pbesol-nc.UPF
     MD5 check sum: e18cc5e4b8a5600c1a19b30c2cab1ca0
     Pseudo is Norm-conserving, Zval =  5.0
     Generated using "atomic" code by A. Dal Corso v.6.5
     Using radial grid of 1085 points,  1 beta functions with:
                l(1) =   1

     PseudoPot. # 4 for Ni read from file:
     ./pseudo/Ni.pbesol-n-nc.UPF
     MD5 check sum: 623411631e0c2eb7c0b2b9815547d2d9
     Pseudo is Norm-conserving + core correction, Zval = 10.0
     Generated using "atomic" code by A. Dal Corso v.6.5
     Using radial grid of 1195 points,  2 beta functions with:
                l(1) =   1
                l(2) =   2

     PseudoPot. # 5 for O  read from file:
     ./pseudo/O.pbesol-nc.UPF
     MD5 check sum: 73d10e7e91dbfcbe8a7e362101007f84
     Pseudo is Norm-conserving, Zval =  6.0
     Generated using "atomic" code by A. Dal Corso v.6.5
     Using radial grid of 1095 points,  1 beta functions with:
                l(1) =   1

     PseudoPot. # 6 for S  read from file:
     ./pseudo/S.pbesol-n-nc.UPF
     MD5 check sum: d8715477aa2619fbc4411ed981bb1c26
     Pseudo is Norm-conserving + core correction, Zval =  6.0
     Generated using "atomic" code by A. Dal Corso v.6.5
     Using radial grid of 1151 points,  2 beta functions with:
                l(1) =   0
                l(2) =   1

     atomic species   valence    mass     pseudopotential
        C              4.00    12.01070     C ( 1.00)
        H              1.00     1.00794     H ( 1.00)
        N              5.00    14.00670     N ( 1.00)
        Ni            10.00    58.69340     Ni( 1.00)
        O              6.00    15.99940     O ( 1.00)
        S              6.00    32.06500     S ( 1.00)

     Starting magnetic structure
     atomic species   magnetization
        C            0.000
        H            0.000
        N            0.000
        Ni           0.250
        O            0.000
        S            0.000

     No symmetry found

   Cartesian axes

     site n.     atom                  positions (alat units)
         1           C   tau(   1) = (   0.2787122   0.9714307   0.4288486  )
         2           C   tau(   2) = (   0.0379730   0.0311503   0.0183277  )
         3           C   tau(   3) = (   0.3806882   0.0117868   0.4489838  )
         4           C   tau(   4) = (   0.1394042   0.9891499   0.0379124  )
         5           C   tau(   5) = (   0.4400787   0.9715829   0.5343281  )
         6           C   tau(   6) = (   0.1997920   0.0283934   0.1231482  )
         7           C   tau(   7) = (   0.1986011   0.5304580   0.4324635  )
         8           C   tau(   8) = (   0.4580372   0.4720800   0.0229252  )
         9           C   tau(   9) = (   0.2341003   0.6142040   0.4982314  )
        10           C   tau(  10) = (   0.4948422   0.3892302   0.0892369  )
        11           C   tau(  11) = (   0.2384981   0.8904717   0.4955761  )
        12           C   tau(  12) = (  -0.0008282   0.1123917   0.0856467  )
        13           C   tau(  13) = (   0.3947360   0.8906489   0.5977380  )
        14           C   tau(  14) = (   0.1557890   0.1097029   0.1871645  )
        15           C   tau(  15) = (   0.0756247   0.6098498   0.5975737  )
        16           C   tau(  16) = (   0.3367152   0.3921904   0.1884642  )
        17           C   tau(  17) = (   0.0350715   0.5258264   0.5351012  )
        18           C   tau(  18) = (   0.2948780   0.4753867   0.1254988  )
        19           C   tau(  19) = (   0.0981522   0.4849593   0.4519611  )
        20           C   tau(  20) = (   0.3569104   0.5163900   0.0416029  )
        21           C   tau(  21) = (   0.4248178   0.0994604   0.3833638  )
        22           C   tau(  22) = (   0.1639424   0.9010006   0.7933713  )
        23           C   tau(  23) = (   0.0588120   0.3950355   0.3866953  )
        24           C   tau(  24) = (   0.2984059   0.6050320   0.7961934  )
        25           C   tau(  25) = (   0.7787122   0.9714307   0.4288486  )
        26           C   tau(  26) = (   0.5379730   0.0311503   0.0183277  )
        27           C   tau(  27) = (   0.8806882   0.0117868   0.4489838  )
        28           C   tau(  28) = (   0.6394042   0.9891499   0.0379124  )
        29           C   tau(  29) = (   0.9400787   0.9715829   0.5343281  )
        30           C   tau(  30) = (   0.6997920   0.0283934   0.1231482  )
        31           C   tau(  31) = (   0.6986021   0.5304580   0.4324635  )
        32           C   tau(  32) = (   0.9580382   0.4720800   0.0229252  )
        33           C   tau(  33) = (   0.7341003   0.6142040   0.4982314  )
        34           C   tau(  34) = (   0.9948422   0.3892302   0.0892369  )
        35           C   tau(  35) = (   0.7384981   0.8904717   0.4955761  )
        36           C   tau(  36) = (   0.4991718   0.1123917   0.0856467  )
        37           C   tau(  37) = (   0.8947360   0.8906489   0.5977380  )
        38           C   tau(  38) = (   0.6557880   0.1097029   0.1871645  )
        39           C   tau(  39) = (   0.5756247   0.6098498   0.5975737  )
        40           C   tau(  40) = (   0.8367152   0.3921904   0.1884642  )
        41           C   tau(  41) = (   0.5350715   0.5258264   0.5351012  )
        42           C   tau(  42) = (   0.7948780   0.4753867   0.1254988  )
        43           C   tau(  43) = (   0.5981522   0.4849593   0.4519611  )
        44           C   tau(  44) = (   0.8569104   0.5163900   0.0416029  )
        45           C   tau(  45) = (   0.9248178   0.0994604   0.3833638  )
        46           C   tau(  46) = (   0.6639424   0.9010006   0.7933713  )
        47           C   tau(  47) = (   0.5588110   0.3950355   0.3866953  )
        48           C   tau(  48) = (   0.7984059   0.6050320   0.7961934  )
        49           C   tau(  49) = (   0.5527667   0.0086062   0.5623134  )
        50           C   tau(  50) = (   0.3121553   0.9899100   0.1503563  )
        51           C   tau(  51) = (   0.2723522   0.4931529   0.3422185  )
        52           C   tau(  52) = (   0.5134237   0.5099098   0.7541263  )
        53           C   tau(  53) = (   0.7079426   0.0085702   0.3366516  )
        54           C   tau(  54) = (   0.4481359   0.9955801   0.7477517  )
        55           C   tau(  55) = (   0.7723532   0.4931519   0.3422194  )
        56           C   tau(  56) = (   0.6830101   0.5169157   0.1522632  )
        57           H   tau(  57) = (   0.2290596   1.0009978   0.3640502  )
        58           H   tau(  58) = (   0.0198054   1.0002267   0.5533467  )
        59           H   tau(  59) = (  -0.0086584   0.5011092   0.7809458  )
        60           H   tau(  60) = (   0.3118554   0.6514319   0.4868937  )
[...]
       110           O   tau( 110) = (   0.8551690   0.6519036   0.7240468  )
       111           O   tau( 111) = (   0.8707656   0.1477170   0.3098797  )
       112           O   tau( 112) = (   0.6091506   0.8535652   0.7199135  )
       113           O   tau( 113) = (   0.9642788   0.3566669   0.3968154  )
       114           O   tau( 114) = (   0.7033039   0.6423280   0.8050417  )
       115           O   tau( 115) = (   0.5200847   0.1353504   0.3952413  )
       116           O   tau( 116) = (   0.7588616   0.8639860   0.8046490  )
       117           S   tau( 117) = (   0.6137067   0.9670425   0.6502078  )
       118           S   tau( 118) = (   0.3741089   0.0304323   0.2380454  )
       119           S   tau( 119) = (   0.3757312   0.5400766   0.3222683  )
       120           S   tau( 120) = (   0.6175448   0.4643850   0.7348012  )
       121           S   tau( 121) = (   0.6030152   0.9670205   0.3159027  )
       122           S   tau( 122) = (   0.3437988   0.0388102   0.7275788  )
       123           S   tau( 123) = (   0.8757322   0.5400756   0.3222691  )
       124           S   tau( 124) = (   0.6193822   0.4746116   0.2385704  )

     number of k points=     1  Marzari-Vanderbilt smearing, width (Ry)=  0.2000
                       cart. coord. in units 2pi/alat
[...]
     atom:  114    charge:    3.3437    magn:    0.0116    constr:    0.0000
     atom:  115    charge:    3.3469    magn:    0.0116    constr:    0.0000
     atom:  116    charge:    3.2585    magn:    0.0491    constr:    0.0000
     atom:  117    charge:    0.1795    magn:    0.0008    constr:    0.0000
     atom:  118    charge:    0.1865    magn:    0.0006    constr:    0.0000
     atom:  119    charge:    0.6831    magn:    0.0171    constr:    0.0000
     atom:  120    charge:    0.7474    magn:    0.0183    constr:    0.0000
     atom:  121    charge:    0.4038    magn:    0.0101    constr:    0.0000
     atom:  122    charge:    1.0313    magn:    0.0248    constr:    0.0000
     atom:  123    charge:    1.1262    magn:    0.0288    constr:    0.0000
     atom:  124    charge:    0.1993    magn:    0.0007    constr:    0.0000

     End of self-consistent calculation

 ------ SPIN UP ------------

[...]

 ------ SPIN DOWN ----------

          k = 0.0000 0.0000 0.0000 ( 91663 PWs)   bands (ev):

   -22.2349 -22.2283 -22.1934 -20.6672 -20.6072 -20.6004 -20.5661 -20.5220
   -18.7439 -18.7092 -18.6994 -17.6709 -17.6338 -17.6104 -17.5869 -17.5775
   -17.5722 -17.5705 -17.5586 -17.5548 -17.4692 -17.4544 -17.4291 -17.4124
   -15.1068 -14.9288 -14.8331 -14.6669 -14.6611 -14.6139 -14.5711 -14.5406
   -13.8219 -13.7410 -13.7186 -13.6828 -13.5885 -13.5090 -13.2234 -13.1685
   -12.8890 -12.8188 -12.7071 -12.4715 -12.2811 -12.1132 -11.9363 -11.9034
   -10.6030 -10.5466 -10.5233 -10.2803 -10.1916 -10.1821 -10.1179 -10.0956
   -10.0778 -10.0540  -9.9957  -9.9758  -9.9267  -9.8935  -9.8725  -9.8638
    -9.7486  -9.7147  -9.7037  -8.5156  -8.2822  -8.1861  -8.1649  -8.0911
    -8.0173  -7.8494  -7.7883  -7.6465  -7.5010  -7.3491  -7.2761  -7.2256
    -6.9403  -6.8481  -6.8154  -6.3925  -6.3669  -6.3180  -6.2756  -6.2208
    -6.1924  -6.1470  -6.0165  -6.0012  -5.9107  -5.8736  -5.8062  -5.6980
    -5.6630  -5.5228  -5.4673  -5.4605  -5.3938  -5.3522  -5.2803  -5.2171
    -5.1704  -5.1299  -5.0705  -5.0610  -5.0189  -4.9519  -4.8574  -4.8487
    -4.8256  -4.7693  -4.7040  -4.6628  -4.6205  -4.6086  -4.5930  -4.5726
    -4.5213  -4.4937  -4.4708  -4.4504  -4.4096  -4.3648  -4.3482  -4.2668
    -4.2541  -4.1697  -4.1416  -4.1237  -4.0596  -4.0238  -4.0093  -3.9312
    -3.8785  -3.8607  -3.7795  -3.7520  -3.7322  -3.6650  -3.6440  -3.5568
    -3.4733  -3.4457  -3.3915  -3.2960  -3.1643  -3.1064  -3.0606  -3.0241
    -2.9012  -2.7808  -2.7357  -2.7156  -2.6443  -2.6236  -2.5903  -2.5536
    -2.5292  -2.4353  -2.4062  -2.3871  -2.3202  -2.2909  -2.2633  -2.1548
    -2.1214  -2.0275  -1.9856  -1.9009  -1.8751  -1.8604  -1.8062  -1.7585
    -1.7490  -1.6980  -1.6884  -1.6408  -1.5748  -1.4999  -1.4831  -1.3568
    -1.3057  -1.2938  -1.2630  -1.2128  -1.1495  -1.1061  -1.0703  -1.0389
    -1.0072  -0.9817  -0.9407  -0.8429  -0.7712  -0.7552  -0.7052  -0.6686
    -0.6236  -0.6022  -0.5723  -0.5420  -0.5159  -0.3949  -0.3652  -0.3201
    -0.2869  -0.2068  -0.1415  -0.0686   0.0841   0.1948   0.2421   0.2709
     0.3301   0.3838   0.4163   0.5191   0.5329   0.5376   0.5509   0.5842
     0.6112   0.6319   0.6658   0.6964   0.9442   0.9798   1.1900   1.2873
     1.3516   2.1373   2.1489   2.1804   2.3248   2.3635   2.4505   2.4921
     2.5124   2.5354   2.6243   2.6589   2.7199   2.7906   2.8275   2.8943
     3.0671   3.2586   3.3194   3.3981   3.6858   3.7542   3.8272   3.8782
     3.9413   3.9850   3.9967   4.0761   5.0745   5.3195   5.4187   5.5053
     5.5185   5.5622   5.7136   5.7930   5.8584   5.9235   5.9732   6.0414
     6.1377   6.1925   6.2612   6.3165   6.3528   6.3556   6.4378   6.4863
     6.7256   6.9230   6.9816   7.0996   7.1083   7.2049   7.2386   7.3030
     7.4006   7.5423   7.6189   7.7365   7.8422

     the spin up/dw Fermi energies are     2.1394    1.8292 ev

!    total energy              =   -1899.26334003 Ry
     Harris-Foulkes estimate   =   -1899.26334005 Ry
     estimated scf accuracy    <       0.00000002 Ry

     The total energy is the sum of the following terms:

     one-electron contribution =   -2279.87633121 Ry
     hartree contribution      =    1330.15457899 Ry
     xc contribution           =    -582.66649224 Ry
     ewald contribution        =    -368.87759116 Ry
     Dispersion Correction     =      -0.65560900 Ry
     smearing contrib. (-TS)   =       2.65810460 Ry

     total magnetization       =     8.00 Bohr mag/cell
     absolute magnetization    =     8.18 Bohr mag/cell

     convergence has been achieved in   9 iterations

     Forces acting on atoms (cartesian axes, Ry/au):

     atom    1 type  1   force =     0.00148937   -0.00583671    0.01182316
     atom    2 type  1   force =     0.00510735    0.00484978    0.00810215
     atom    3 type  1   force =    -0.01031505    0.03052806   -0.04939859
     atom    4 type  1   force =    -0.01284115   -0.03183719   -0.05161988
     atom    5 type  1   force =     0.05089597    0.01625083    0.00324608
     atom    6 type  1   force =     0.02972490   -0.01305572    0.03332495
     atom    7 type  1   force =     0.00306247    0.04922904   -0.00344006
     atom    8 type  1   force =     0.00465859   -0.04848852   -0.00885882
     atom    9 type  1   force =    -0.01465103    0.01487289    0.06540618
     atom   10 type  1   force =    -0.01860182   -0.01853007    0.06725563
     atom   11 type  1   force =     0.00159594    0.01147481   -0.00723695
     atom   12 type  1   force =     0.00257724   -0.01077057   -0.00696391
     atom   13 type  1   force =    -0.05043117   -0.06094316   -0.01326508
     atom   14 type  1   force =    -0.02477757    0.03878962    0.01742088
     atom   15 type  1   force =    -0.00930957   -0.00339747   -0.00000592
     atom   16 type  1   force =     0.01065828   -0.02483068   -0.00970654
     atom   17 type  1   force =     0.01221841    0.00042572   -0.00276681
     atom   18 type  1   force =     0.01597427    0.01534413   -0.01666519
     atom   19 type  1   force =    -0.03062701   -0.03134433    0.01358738
     atom   20 type  1   force =    -0.02899058    0.02678773   -0.00866474
     atom   21 type  1   force =    -0.15882387   -0.03170272   -0.03839379
     atom   22 type  1   force =    -0.16696763    0.03380084   -0.04369388
     atom   23 type  1   force =     0.00723185   -0.00115282    0.00191725
     atom   24 type  1   force =    -0.01454372   -0.00583853    0.01004213
     atom   25 type  1   force =     0.00144014   -0.05556585   -0.01254359
     atom   26 type  1   force =    -0.02400229    0.05545012    0.03566144
     atom   27 type  1   force =     0.03488034    0.03126078    0.01893222
     atom   28 type  1   force =     0.02544537   -0.02432567   -0.02079309
     atom   29 type  1   force =    -0.01202652    0.00130473   -0.00362754
     atom   30 type  1   force =    -0.01785539   -0.00454377   -0.02637369
     atom   31 type  1   force =     0.03143488    0.00730426    0.03168630
     atom   32 type  1   force =    -0.00452251   -0.00424652    0.00901736
     atom   33 type  1   force =    -0.04302790    0.04487815    0.03896536
     atom   34 type  1   force =    -0.00309903    0.01094815   -0.00468485
     atom   35 type  1   force =     0.01363865   -0.02108908    0.07212516
     atom   36 type  1   force =     0.03841980    0.02950402    0.07374593
     atom   37 type  1   force =     0.00785027    0.00291644    0.00005007
     atom   38 type  1   force =    -0.00942422    0.02100376   -0.01181315
     atom   39 type  1   force =     0.01216905    0.02023375   -0.01417761
     atom   40 type  1   force =     0.03283251   -0.04795694    0.00418907
     atom   41 type  1   force =     0.01331345   -0.00417257   -0.02016481
     atom   42 type  1   force =    -0.04182820    0.01482184    0.01173964
     atom   43 type  1   force =    -0.02611665   -0.02193382   -0.02004835
     atom   44 type  1   force =     0.01323230    0.02915311   -0.04974382
     atom   45 type  1   force =     0.01306529   -0.00117397    0.00728755
     atom   46 type  1   force =     0.01199497    0.00331425    0.00944473
     atom   47 type  1   force =    -0.00328039    0.00283611    0.00567160
     atom   48 type  1   force =     0.16472072   -0.03544969   -0.03880201
     atom   49 type  1   force =    -0.00032110   -0.00005118    0.00088944
     atom   50 type  1   force =     0.00016579   -0.00015691   -0.00035357
     atom   51 type  1   force =    -0.00004892   -0.00022365    0.00003830
     atom   52 type  1   force =     0.00004736   -0.00005582   -0.00002060
     atom   53 type  1   force =     0.00003889   -0.00004472    0.00017580
     atom   54 type  1   force =     0.00010168   -0.00027016    0.00006550
     atom   55 type  1   force =     0.00073164   -0.00000157   -0.00043125
     atom   56 type  1   force =    -0.00001689    0.00054610   -0.00004406
     atom   57 type  2   force =     0.00176732    0.00355610    0.00224781
     atom   58 type  2   force =     0.00008283    0.00097553   -0.00263723
     atom   59 type  2   force =    -0.00197341    0.00301817   -0.00109965
     atom   60 type  2   force =     0.00234806    0.00291922   -0.00474317
[...]
     atom  110 type  5   force =    -0.05166160   -0.02495910    0.04515985
     atom  111 type  5   force =    -0.00812056    0.00777864   -0.00568517
     atom  112 type  5   force =    -0.01557235   -0.00952843   -0.00326705
     atom  113 type  5   force =     0.00099835   -0.01221373    0.00543764
     atom  114 type  5   force =    -0.10166900    0.02269423    0.02201891
     atom  115 type  5   force =     0.09159789    0.02580406    0.00750201
     atom  116 type  5   force =     0.00054777    0.00203634    0.00412786
     atom  117 type  6   force =     0.00008196    0.00010924    0.00030804
     atom  118 type  6   force =    -0.00021301   -0.00034128   -0.00002313
     atom  119 type  6   force =     0.00012596   -0.00019353    0.00023933
     atom  120 type  6   force =    -0.00001066    0.00011750    0.00015432
     atom  121 type  6   force =    -0.00002040    0.00023478    0.00034550
     atom  122 type  6   force =     0.00055079   -0.00014922   -0.00010716
     atom  123 type  6   force =     0.00096214   -0.00001610   -0.00085724
     atom  124 type  6   force =     0.00031545    0.00017497    0.00021685

     Total force =     0.002532     Total SCF correction =     0.000142

     bfgs converged in  64 scf cycles and  63 bfgs steps
     (criteria: energy <  1.0E-04 Ry, force <  1.0E-03 Ry/Bohr)

     End of BFGS Geometry Optimization

     Final energy   =   -1899.2633400328 Ry
Begin final coordinates

ATOMIC_POSITIONS (crystal)
C             0.2882120000        0.9700500000        0.5219840000    0   0   0
C             0.0383790000        0.0311060000        0.0223080000    0   0   0
C             0.3906340000        0.0117700000        0.5464920000    0   0   0
C             0.1402440000        0.9877440000        0.0461460000    0   0   0
C             0.4519150000        0.9702020000        0.6503710000    0   0   0
C             0.2025200000        0.0283530000        0.1498930000    0   0   0
C             0.2081810000        0.5297040000        0.5263840000    0   0   0
C             0.4585450000        0.4714090000        0.0279040000    0   0   0
C             0.2451370000        0.6133310000        0.6064350000    0   0   0
C             0.4968190000        0.3886770000        0.1086170000    0   0   0
C             0.2494760000        0.8892060000        0.6032030000    0   0   0
C             0.0010690000        0.1122320000        0.1042470000    0   0   0
C             0.4079770000        0.8893830000        0.7275520000    0   0   0
C             0.1599350000        0.1095470000        0.2278120000    0   0   0
C             0.0888620000        0.6089830000        0.7273520000    0   0   0
C             0.3408900000        0.3916330000        0.2293940000    0   0   0
C             0.0469250000        0.5250790000        0.6513120000    0   0   0
C             0.2976580000        0.4747110000        0.1527540000    0   0   0
C             0.1081640000        0.4842700000        0.5501160000    0   0   0
C             0.3578320000        0.5156560000        0.0506380000    0   0   0
C             0.4333100000        0.0993190000        0.4666210000    0   0   0
C             0.1815170000        0.8997200000        0.9656720000    0   0   0
C             0.0673780000        0.3944740000        0.4706760000    0   0   0
C             0.3160430000        0.6041720000        0.9691070000    0   0   0
C             0.7882120000        0.9700500000        0.5219840000    0   0   0
C             0.5383790000        0.0311060000        0.0223080000    0   0   0
C             0.8906340000        0.0117700000        0.5464920000    0   0   0
C             0.6402440000        0.9877440000        0.0461460000    0   0   0
C             0.9519150000        0.9702020000        0.6503710000    0   0   0
C             0.7025200000        0.0283530000        0.1498930000    0   0   0
C             0.7081820000        0.5297040000        0.5263840000    0   0   0
C             0.9585460000        0.4714090000        0.0279040000    0   0   0
C             0.7451370000        0.6133310000        0.6064350000    0   0   0
C             0.9968190000        0.3886770000        0.1086170000    0   0   0
C             0.7494760000        0.8892060000        0.6032030000    0   0   0
C             0.5010690000        0.1122320000        0.1042470000    0   0   0
C             0.9079770000        0.8893830000        0.7275520000    0   0   0
C             0.6599340000        0.1095470000        0.2278120000    0   0   0
C             0.5888620000        0.6089830000        0.7273520000    0   0   0
C             0.8408900000        0.3916330000        0.2293940000    0   0   0
C             0.5469250000        0.5250790000        0.6513120000    0   0   0
C             0.7976580000        0.4747110000        0.1527540000    0   0   0
C             0.6081640000        0.4842700000        0.5501160000    0   0   0
C             0.8578320000        0.5156560000        0.0506380000    0   0   0
C             0.9333100000        0.0993190000        0.4666210000    0   0   0
C             0.6815170000        0.8997200000        0.9656720000    0   0   0
C             0.5673770000        0.3944740000        0.4706760000    0   0   0
C             0.8160430000        0.6041720000        0.9691070000    0   0   0
C             0.5506821427        0.0140068063        0.6882295643
C             0.2964869670        0.9798662674        0.1940070478
C             0.2543575948        0.5239371702        0.4045395875
C             0.5062707328        0.4774291910        0.9066409296
C             0.7451271409       -0.0316584846        0.3957545309
C             0.4693119353        1.0139377697        0.9173231153
C             0.7951874092        0.4843965539        0.4607448568
C             0.7034004666        0.5219688460        0.1931797972
H             0.2371240000        0.9995750000        0.4431130000    0   0   0
H             0.0320630000        0.9988050000        0.6735200000    0   0   0
H             0.0086410000        0.5003970000        0.9505480000    0   0   0
H             0.3226410000        0.6505060000        0.5926350000    0   0   0
[...]
O             0.8712080000        0.6509770000        0.8812920000    0   0   0
O             0.8776300000        0.1475070000        0.3771780000    0   0   0
O             0.6250980000        0.8523520000        0.8762610000    0   0   0
O             0.9730690000        0.3561600000        0.4829940000    0   0   0
O             0.7211370000        0.6414150000        0.9798770000    0   0   0
O             0.5288400000        0.1351580000        0.4810780000    0   0   0
O             0.7766860000        0.8627580000        0.9793990000    0   0   0
S             0.6515129245        1.0776906651        0.7302319599
S             0.3906593872       -0.0855896459        0.2490327366
S             0.3558226902        0.5921167334        0.3494716361
S             0.6115530828        0.4131742705        0.8545699542
S             0.6478229580        0.8936015127        0.3361499815
S             0.3587926969        0.0768564349        0.8762176899
S             0.8931814656        0.5561846255        0.4016817388
S             0.6087697849        0.5848047963        0.2464651935
End final coordinates

     Writing output data file /nfs/hpc/share/gantzlen/NiPyC2_relax_sc211_meta_functionalized_CH-S_pbesol_relax_frozen_parent_atoms.save/

     General routines

     Parallel routines

   This run was terminated on:  19: 9: 4   6Jul2020

   JOB DONE.
QE finished Mon Jul 6 19:09:04 PDT 2020