     Program PWSCF v.6.5 starts on  8Jul2020 at 10:22:16

     K-points division:     npool     =       2
     R & G space division:  proc/nbgrp/npool/nimage =       8
     Reading input from ./QE_input_scripts/pw.NiPyC2_relax_sc211_meta_functionalized_CH2-CH3_pbesol_relax_frozen_parent_atoms_Round2.in
Warning: card &CELL ignored
Warning: card    CELL_DYNAMICS = 'BFGS' ignored
Warning: card    CELL_DOFREE = 'XYZ' ignored
Warning: card / ignored

     Current dimensions of program PWSCF are:
     Max number of different atomic species (ntypx) = 10
     Max number of k-points (npk) =  40000
     Max angular momentum in pseudopotentials (lmaxx) =  3

     Parameters for Dispersion (Grimme-D2) Correction:
       atom      VdW radius       C_6

        C          2.744         60.710
        H          1.892          4.857
        N          2.640         42.670
        Ni         2.952        374.666
        O          2.536         24.284

     gamma-point specific algorithms are used

     Subspace diagonalization in iterative solution of the eigenvalue problem:
     a serial algorithm will be used

     bravais-lattice index     =            0
     lattice parameter (alat)  =      23.6322  a.u.
     unit-cell volume          =   10858.6596 (a.u.)^3
     number of atoms/cell      =          156
     number of atomic types    =            5
     number of electrons       =       496.00 (up: 252.00, down: 244.00)
     number of Kohn-Sham states=          302
     kinetic-energy cutoff     =     100.0000  Ry
     charge density cutoff     =     400.0000  Ry
     convergence threshold     =      1.0E-06
     mixing beta               =       0.7000
     number of iterations used =            8  local-TF  mixing
     Exchange-correlation= PBESOL
                           (   1   4  10   8   0   0   0)
     nstep                     =          200

     celldm(1)=  23.632191  celldm(2)=   0.000000  celldm(3)=   0.000000
     celldm(4)=   0.000000  celldm(5)=   0.000000  celldm(6)=   0.000000

     crystal axes: (cart. coord. in units of alat)
               a(1) = (   1.000000   0.000000   0.000000 )
               a(2) = (   0.000000   1.001423   0.000000 )
               a(3) = (  -0.018199   0.000000   0.821574 )

     reciprocal axes: (cart. coord. in units 2 pi/alat)
               b(1) = (  1.000000  0.000000  0.022151 )
               b(2) = (  0.000000  0.998579  0.000000 )
               b(3) = (  0.000000  0.000000  1.217176 )

     PseudoPot. # 1 for C  read from file:
     ./pseudo/C.pbesol-nc.UPF
     MD5 check sum: ce26087537ded160c8d400e183a8bf42
     Pseudo is Norm-conserving, Zval =  4.0
     Generated using "atomic" code by A. Dal Corso v.6.5
     Using radial grid of 1073 points,  1 beta functions with:
                l(1) =   1

     PseudoPot. # 2 for H  read from file:
     ./pseudo/H.pbesol-n-nc.UPF
     MD5 check sum: 7995ef24074557c85b430109caaacc09
     Pseudo is Norm-conserving, Zval =  1.0
     Generated using "atomic" code by A. Dal Corso v.6.5
     Using radial grid of  929 points,  0 beta functions with:

     PseudoPot. # 3 for N  read from file:
     ./pseudo/N.pbesol-nc.UPF
     MD5 check sum: e18cc5e4b8a5600c1a19b30c2cab1ca0
     Pseudo is Norm-conserving, Zval =  5.0
     Generated using "atomic" code by A. Dal Corso v.6.5
     Using radial grid of 1085 points,  1 beta functions with:
                l(1) =   1

     PseudoPot. # 4 for Ni read from file:
     ./pseudo/Ni.pbesol-n-nc.UPF
     MD5 check sum: 623411631e0c2eb7c0b2b9815547d2d9
     Pseudo is Norm-conserving + core correction, Zval = 10.0
     Generated using "atomic" code by A. Dal Corso v.6.5
     Using radial grid of 1195 points,  2 beta functions with:
                l(1) =   1
                l(2) =   2

     PseudoPot. # 5 for O  read from file:
     ./pseudo/O.pbesol-nc.UPF
     MD5 check sum: 73d10e7e91dbfcbe8a7e362101007f84
     Pseudo is Norm-conserving, Zval =  6.0
     Generated using "atomic" code by A. Dal Corso v.6.5
     Using radial grid of 1095 points,  1 beta functions with:
                l(1) =   1

     atomic species   valence    mass     pseudopotential
        C              4.00    12.01070     C ( 1.00)
        H              1.00     1.00794     H ( 1.00)
        N              5.00    14.00670     N ( 1.00)
        Ni            10.00    58.69340     Ni( 1.00)
        O              6.00    15.99940     O ( 1.00)

     Starting magnetic structure
     atomic species   magnetization
        C            0.000
        H            0.000
        N            0.000
        Ni           0.250
        O            0.000

     No symmetry found

   Cartesian axes

     site n.     atom                  positions (alat units)
         1           C   tau(   1) = (   0.2787124   0.9714303   0.4288485  )
         2           C   tau(   2) = (   0.0379730   0.0311503   0.0183277  )
         3           C   tau(   3) = (   0.3806884   0.0117867   0.4489836  )
         4           C   tau(   4) = (   0.1394042   0.9891495   0.0379124  )
         5           C   tau(   5) = (   0.4400789   0.9715826   0.5343279  )
         6           C   tau(   6) = (   0.1997921   0.0283933   0.1231482  )
         7           C   tau(   7) = (   0.1986013   0.5304577   0.4324634  )
         8           C   tau(   8) = (   0.4580372   0.4720798   0.0229252  )
         9           C   tau(   9) = (   0.2341005   0.6142037   0.4982312  )
        10           C   tau(  10) = (   0.4948423   0.3892301   0.0892369  )
        11           C   tau(  11) = (   0.2384983   0.8904713   0.4955759  )
        12           C   tau(  12) = (  -0.0008282   0.1123917   0.0856466  )
        13           C   tau(  13) = (   0.3947363   0.8906486   0.5977378  )
        14           C   tau(  14) = (   0.1557890   0.1097029   0.1871644  )
        15           C   tau(  15) = (   0.0756249   0.6098496   0.5975735  )
        16           C   tau(  16) = (   0.3367153   0.3921903   0.1884642  )
        17           C   tau(  17) = (   0.0350718   0.5258262   0.5351010  )
        18           C   tau(  18) = (   0.2948780   0.4753865   0.1254987  )
        19           C   tau(  19) = (   0.0981524   0.4849591   0.4519610  )
        20           C   tau(  20) = (   0.3569104   0.5163898   0.0416029  )
        21           C   tau(  21) = (   0.4248180   0.0994603   0.3833637  )
        22           C   tau(  22) = (   0.1639427   0.9010003   0.7933710  )
        23           C   tau(  23) = (   0.0588122   0.3950353   0.3866952  )
        24           C   tau(  24) = (   0.2984062   0.6050317   0.7961931  )
        25           C   tau(  25) = (   0.7787124   0.9714303   0.4288485  )
        26           C   tau(  26) = (   0.5379730   0.0311503   0.0183277  )
        27           C   tau(  27) = (   0.8806884   0.0117867   0.4489836  )
        28           C   tau(  28) = (   0.6394042   0.9891495   0.0379124  )
        29           C   tau(  29) = (   0.9400789   0.9715826   0.5343279  )
        30           C   tau(  30) = (   0.6997921   0.0283933   0.1231482  )
        31           C   tau(  31) = (   0.6986023   0.5304577   0.4324634  )
        32           C   tau(  32) = (   0.9580382   0.4720798   0.0229252  )
        33           C   tau(  33) = (   0.7341005   0.6142037   0.4982312  )
        34           C   tau(  34) = (   0.9948423   0.3892301   0.0892369  )
        35           C   tau(  35) = (   0.7384983   0.8904713   0.4955759  )
        36           C   tau(  36) = (   0.4991718   0.1123917   0.0856466  )
        37           C   tau(  37) = (   0.8947363   0.8906486   0.5977378  )
        38           C   tau(  38) = (   0.6557880   0.1097029   0.1871644  )
        39           C   tau(  39) = (   0.5756249   0.6098496   0.5975735  )
        40           C   tau(  40) = (   0.8367153   0.3921903   0.1884642  )
        41           C   tau(  41) = (   0.5350718   0.5258262   0.5351010  )
        42           C   tau(  42) = (   0.7948780   0.4753865   0.1254987  )
        43           C   tau(  43) = (   0.5981524   0.4849591   0.4519610  )
        44           C   tau(  44) = (   0.8569104   0.5163898   0.0416029  )
        45           C   tau(  45) = (   0.9248180   0.0994603   0.3833637  )
        46           C   tau(  46) = (   0.6639427   0.9010003   0.7933710  )
        47           C   tau(  47) = (   0.5588112   0.3950353   0.3866952  )
        48           C   tau(  48) = (   0.7984062   0.6050317   0.7961931  )
        49           C   tau(  49) = (   0.5342422   0.0161419   0.5890300  )
        50           C   tau(  50) = (   0.5699650   0.1304884   0.6015853  )
        51           C   tau(  51) = (   0.9383028   0.0047487   0.7639776  )
        52           C   tau(  52) = (   0.8528533   0.0805384   0.7328071  )
        53           C   tau(  53) = (   0.2699578   0.5153943   0.3432807  )
        54           C   tau(  54) = (   0.3361869   0.6095331   0.3077066  )
        55           C   tau(  55) = (   0.5116066   0.4934882   0.7575331  )
        56           C   tau(  56) = (   0.6062768   0.4224172   0.7389672  )
        57           C   tau(  57) = (   0.0343964   0.0157013   0.5889741  )
        58           C   tau(  58) = (   0.0710852   0.1297404   0.6013536  )
        59           C   tau(  59) = (   0.4383369   0.0049440   0.7638371  )
        60           C   tau(  60) = (   0.3531596   0.0811103   0.7328835  )
[...]
       142           O   tau( 142) = (   0.3551693   0.6519033   0.7240466  )
       143           O   tau( 143) = (   0.3707657   0.1477169   0.3098796  )
       144           O   tau( 144) = (   0.1091509   0.8535649   0.7199133  )
       145           O   tau( 145) = (   0.4642790   0.3566668   0.3968153  )
       146           O   tau( 146) = (   0.2033042   0.6423277   0.8050415  )
       147           O   tau( 147) = (   0.0200849   0.1353503   0.3952412  )
       148           O   tau( 148) = (   0.2588619   0.8639857   0.8046488  )
       149           O   tau( 149) = (   0.6158111   0.3481837   0.3145585  )
       150           O   tau( 150) = (   0.8551693   0.6519033   0.7240466  )
       151           O   tau( 151) = (   0.8707657   0.1477169   0.3098796  )
       152           O   tau( 152) = (   0.6091509   0.8535649   0.7199133  )
       153           O   tau( 153) = (   0.9642790   0.3566668   0.3968153  )
       154           O   tau( 154) = (   0.7033042   0.6423277   0.8050415  )
       155           O   tau( 155) = (   0.5200849   0.1353503   0.3952412  )
       156           O   tau( 156) = (   0.7588619   0.8639857   0.8046488  )

     number of k points=     1  Marzari-Vanderbilt smearing, width (Ry)=  0.2000
                       cart. coord. in units 2pi/alat
        k(    1) = (   0.0000000   0.0000000   0.0000000), wk =   1.0000000

     Check: negative core charge=   -0.000145

     Initial potential from superposition of free atoms

     starting charge  495.99569, renormalised to  496.00000
     Starting wfcs are  452 randomized atomic wfcs

     Self-consistent Calculation

     iteration #  1     ecut=   100.00 Ry     beta= 0.70
     Davidson diagonalization with overlap
     ethr =  1.00E-02,  avg # of iterations =  3.5

[...]
     atom:   56    charge:    0.7948    magn:    0.0044    constr:    0.0000
     atom:   57    charge:    0.8169    magn:    0.0051    constr:    0.0000
     atom:   58    charge:    0.8413    magn:   -0.0010    constr:    0.0000
     atom:   59    charge:    0.6972    magn:    0.0079    constr:    0.0000
     atom:   60    charge:    0.7346    magn:    0.0014    constr:    0.0000
[...]
     atom:  142    charge:    2.0026    magn:    0.0379    constr:    0.0000
     atom:  143    charge:    1.6473    magn:    0.0176    constr:    0.0000
     atom:  144    charge:    1.3709    magn:    0.0261    constr:    0.0000
     atom:  145    charge:    1.6694    magn:    0.0288    constr:    0.0000
     atom:  146    charge:    1.8425    magn:    0.0372    constr:    0.0000
     atom:  147    charge:    1.4411    magn:    0.0071    constr:    0.0000
     atom:  148    charge:    1.7527    magn:    0.0325    constr:    0.0000
     atom:  149    charge:    1.8341    magn:    0.0336    constr:    0.0000
     atom:  150    charge:    1.8278    magn:    0.0216    constr:    0.0000
     atom:  151    charge:    1.7446    magn:    0.0169    constr:    0.0000
     atom:  152    charge:    1.2070    magn:    0.0227    constr:    0.0000
     atom:  153    charge:    1.5318    magn:    0.0255    constr:    0.0000
     atom:  154    charge:    2.0620    magn:    0.0112    constr:    0.0000
     atom:  155    charge:    1.9400    magn:    0.0092    constr:    0.0000
     atom:  156    charge:    1.8434    magn:    0.0323    constr:    0.0000

     End of self-consistent calculation

 ------ SPIN UP ------------

[...]

 ------ SPIN DOWN ----------

          k = 0.0000 0.0000 0.0000 ( 91663 PWs)   bands (ev):

   -21.7004 -21.6901 -21.6830 -21.0396 -21.0203 -21.0102 -20.9599 -20.8828
   -19.2169 -19.1874 -19.1010 -18.0188 -18.0184 -18.0140 -17.9660 -17.9640
   -17.9571 -17.9534 -17.9291 -17.9160 -17.8684 -17.8168 -17.8030 -17.7896
   -14.8931 -14.8726 -14.6671 -14.4527 -14.4477 -14.4224 -14.3456 -14.3100
   -13.7251 -13.6802 -13.5489 -13.3816 -13.3293 -13.2882 -13.2439 -13.1290
   -12.4133 -12.2712 -12.1214 -11.9804 -11.8785 -11.8563 -11.7282 -11.5827
   -10.7829 -10.7667 -10.5130 -10.3289 -10.3031 -10.2803 -10.2083 -10.1448
   -10.1394 -10.0571 -10.0392 -10.0323  -9.9929  -9.8828  -9.7343  -9.6845
    -9.3610  -9.3160  -9.2483  -8.7153  -8.6618  -8.5199  -8.2620  -8.2209
    -8.1614  -8.1066  -7.9945  -7.9368  -7.7903  -7.7149  -7.6261  -7.5943
    -7.5322  -7.4605  -7.4174  -6.7739  -6.6244  -6.5586  -6.5255  -6.4896
    -6.3829  -6.3186  -6.3092  -6.2841  -6.2193  -6.1815  -6.1428  -5.9982
    -5.8991  -5.7872  -5.7498  -5.6795  -5.6565  -5.5857  -5.5230  -5.4709
    -5.4575  -5.4197  -5.4164  -5.3296  -5.3185  -5.2989  -5.2596  -5.2265
    -5.1791  -5.1473  -5.1048  -5.0653  -4.9858  -4.9611  -4.9300  -4.9230
    -4.8668  -4.8462  -4.7909  -4.7617  -4.7186  -4.7087  -4.6843  -4.6651
    -4.6151  -4.5922  -4.5365  -4.4319  -4.3825  -4.3748  -4.3132  -4.2931
    -4.2489  -4.1988  -4.1584  -4.1469  -4.0699  -4.0060  -3.9766  -3.9495
    -3.8741  -3.8665  -3.8049  -3.7087  -3.6212  -3.5938  -3.5852  -3.5167
    -3.4763  -3.4392  -3.4000  -3.3151  -3.2768  -3.2521  -3.1317  -3.0916
    -3.0643  -3.0185  -2.9831  -2.9179  -2.8726  -2.8300  -2.8026  -2.6845
    -2.6083  -2.5696  -2.4933  -2.4512  -2.3890  -2.3716  -2.3512  -2.2937
    -2.2639  -2.2284  -2.2015  -2.1766  -2.1388  -2.0999  -2.0456  -2.0266
    -1.9980  -1.9566  -1.8993  -1.8663  -1.8223  -1.8067  -1.7864  -1.7292
    -1.7091  -1.6935  -1.6693  -1.5984  -1.5873  -1.5484  -1.4556  -1.3933
    -1.3773  -1.3390  -1.3120  -1.2684  -1.2258  -1.2004  -1.1691  -1.1384
    -1.1043  -1.0741  -1.0213  -0.9933  -0.9862  -0.9455  -0.9185  -0.7919
    -0.7743  -0.7462  -0.6651  -0.6082  -0.5601  -0.4677  -0.3869  -0.3374
    -0.2152  -0.1766  -0.0609  -0.0475   0.0097   0.0725   0.1278   0.1703
     0.1820   0.2059   0.2228   0.2605   0.2958   0.3506   0.3756   0.4010
     0.4405   1.4071   1.4820   1.5740   1.8387   2.0567   2.0817   2.1460
     2.2007   2.3415   2.3854   2.4726   3.1860   3.2237   3.2370   3.3815
     3.4280   3.4996   3.5726   3.6513   4.3085   4.4578   4.5663   4.6986
     4.8306   4.9685   5.1905   5.2523   5.3269   5.4945   5.6157   5.6703
     5.7933   5.8264   5.9059   5.9200   5.9758   6.0214   6.0544   6.1953
     6.5260   6.5805   6.6803   6.8072   6.9062   6.9576   7.0969   7.3163
     7.3869   7.3966   7.5780   7.6862   7.8278   7.9020   7.9425   7.9693
     8.0278   8.0618   8.1319   8.2060   8.2656   8.3238

     the spin up/dw Fermi energies are     1.7108    1.3703 ev

!    total energy              =   -1841.73343060 Ry
     Harris-Foulkes estimate   =   -1841.73343060 Ry
     estimated scf accuracy    <          9.5E-09 Ry

     The total energy is the sum of the following terms:

     one-electron contribution =   -2176.81509618 Ry
     hartree contribution      =    1280.74173142 Ry
     xc contribution           =    -572.97218524 Ry
     ewald contribution        =    -375.68767153 Ry
     Dispersion Correction     =      -0.82137406 Ry
     smearing contrib. (-TS)   =       3.82116499 Ry

     total magnetization       =     8.00 Bohr mag/cell
     absolute magnetization    =     8.19 Bohr mag/cell

     convergence has been achieved in  10 iterations

     Forces acting on atoms (cartesian axes, Ry/au):

     atom    1 type  1   force =    -0.00007008    0.00022892    0.00011444
     atom    2 type  1   force =     0.00003501    0.00030500   -0.00004677
     atom    3 type  1   force =    -0.00008690   -0.00001203   -0.00006261
     atom    4 type  1   force =     0.00019737   -0.00005530   -0.00042103
     atom    5 type  1   force =     0.00018690    0.00008303    0.00000051
     atom    6 type  1   force =    -0.00030949   -0.00013888    0.00031371
     atom    7 type  1   force =     0.00011818    0.00010715   -0.00017870
     atom    8 type  1   force =     0.00016823   -0.00024989   -0.00015671
     atom    9 type  1   force =     0.00000883   -0.00025341   -0.00034782
     atom   10 type  1   force =     0.00029578   -0.00017053    0.00004206
     atom   11 type  1   force =     0.00065844   -0.00019742   -0.00012144
     atom   12 type  1   force =    -0.00006980   -0.00000634    0.00002482
     atom   13 type  1   force =     0.00009876    0.00027798   -0.00045853
     atom   14 type  1   force =    -0.00012602   -0.00014066   -0.00024915
     atom   15 type  1   force =     0.00001779   -0.00020752   -0.00007414
     atom   16 type  1   force =    -0.00002742    0.00024676   -0.00005834
     atom   17 type  1   force =    -0.00007893    0.00038829   -0.00004502
     atom   18 type  1   force =     0.00027186   -0.00023714   -0.00012390
     atom   19 type  1   force =     0.00014321    0.00006032   -0.00005877
     atom   20 type  1   force =     0.00003252   -0.00002649    0.00006169
     atom   21 type  1   force =    -0.00034004   -0.00013814    0.00004444
     atom   22 type  1   force =     0.00043169   -0.00009819   -0.00008255
     atom   23 type  1   force =    -0.00016492   -0.00036282   -0.00009810
     atom   24 type  1   force =     0.00001096   -0.00026446   -0.00007624
     atom   25 type  1   force =    -0.00030394    0.00031135    0.00048858
     atom   26 type  1   force =    -0.00008898    0.00015549    0.00015438
     atom   27 type  1   force =    -0.00040099   -0.00013512    0.00008381
     atom   28 type  1   force =     0.00001105    0.00007092    0.00010820
     atom   29 type  1   force =     0.00022936   -0.00016087    0.00040505
     atom   30 type  1   force =    -0.00068232   -0.00030898    0.00029692
     atom   31 type  1   force =     0.00006996   -0.00049969   -0.00029433
     atom   32 type  1   force =     0.00007643    0.00007180    0.00040548
     atom   33 type  1   force =     0.00040721   -0.00036562    0.00017992
     atom   34 type  1   force =    -0.00049290   -0.00031529    0.00013319
     atom   35 type  1   force =     0.00025887   -0.00042224   -0.00000484
     atom   36 type  1   force =     0.00040656    0.00031741    0.00057777
     atom   37 type  1   force =     0.00022702   -0.00013685   -0.00007781
     atom   38 type  1   force =    -0.00011633    0.00020792    0.00003290
     atom   39 type  1   force =     0.00031321    0.00005466   -0.00000325
     atom   40 type  1   force =    -0.00065476   -0.00018158    0.00020577
     atom   41 type  1   force =     0.00018968   -0.00016013   -0.00019405
     atom   42 type  1   force =    -0.00028988   -0.00029028   -0.00038030
     atom   43 type  1   force =     0.00010593    0.00016691   -0.00023603
     atom   44 type  1   force =    -0.00035129   -0.00016453    0.00006550
     atom   45 type  1   force =    -0.00009449   -0.00069035    0.00066820
     atom   46 type  1   force =     0.00006504    0.00006938   -0.00009357
     atom   47 type  1   force =     0.00059895   -0.00026061    0.00003595
     atom   48 type  1   force =     0.00038514    0.00022431    0.00028749
     atom   49 type  1   force =     0.00006969    0.00007552   -0.00002873
     atom   50 type  1   force =    -0.00022810   -0.00000329    0.00009477
     atom   51 type  1   force =    -0.00011797   -0.00001616   -0.00003395
     atom   52 type  1   force =    -0.00026208    0.00025478    0.00001394
     atom   53 type  1   force =     0.00012805    0.00010796   -0.00033080
     atom   54 type  1   force =    -0.00005304    0.00035517    0.00001925
     atom   55 type  1   force =    -0.00001099    0.00002694   -0.00015335
     atom   56 type  1   force =     0.00002231    0.00005191   -0.00004979
     atom   57 type  1   force =     0.00024987   -0.00009262   -0.00018554
     atom   58 type  1   force =     0.00000965    0.00023793    0.00021618
     atom   59 type  1   force =    -0.00003469    0.00001878    0.00017406
     atom   60 type  1   force =     0.00007262   -0.00017162    0.00002808
[...]
     atom  142 type  5   force =     0.00015257   -0.00044579    0.00043013
     atom  143 type  5   force =     0.00060034   -0.00029298    0.00034304
     atom  144 type  5   force =     0.00019834   -0.00013438    0.00002411
     atom  145 type  5   force =    -0.00000923    0.00041823   -0.00003604
     atom  146 type  5   force =    -0.00019403   -0.00043293   -0.00000126
     atom  147 type  5   force =    -0.00033380    0.00057046    0.00027167
     atom  148 type  5   force =     0.00008384   -0.00000334    0.00028351
     atom  149 type  5   force =    -0.00012265    0.00011350    0.00023960
     atom  150 type  5   force =     0.00010694    0.00029909   -0.00007927
     atom  151 type  5   force =     0.00077560    0.00036667   -0.00026907
     atom  152 type  5   force =     0.00021172   -0.00014518   -0.00004499
     atom  153 type  5   force =    -0.00029961   -0.00053996   -0.00009677
     atom  154 type  5   force =    -0.00011805    0.00015933   -0.00000707
     atom  155 type  5   force =    -0.00003450    0.00064691    0.00015132
     atom  156 type  5   force =     0.00004215    0.00012062   -0.00007773

     Total force =     0.004941     Total SCF correction =     0.000208

     bfgs converged in  87 scf cycles and  86 bfgs steps
     (criteria: energy <  1.0E-04 Ry, force <  1.0E-03 Ry/Bohr)

     End of BFGS Geometry Optimization

     Final energy   =   -1841.7334305990 Ry
Begin final coordinates

ATOMIC_POSITIONS (crystal)
C             0.2875208124        0.9783448513        0.5310724115
C             0.0347678133        0.0337688527        0.0361983252
C             0.3886277765        0.0213927313        0.5617880824
C             0.1324076478        0.9787687241        0.0604697602
C             0.4474429989        0.9746697580        0.6663933378
C             0.2015398276        0.0195543500        0.1575494014
C             0.2158315113        0.5427365294        0.5241912244
C             0.4523285208        0.4438038031       -0.0023576240
C             0.2413376877        0.6283686204        0.6088304648
C             0.4863170624        0.3649005579        0.0883762047
C             0.2463113325        0.8937502471        0.6038465362
C             0.0135832587        0.1257089823        0.1106278275
C             0.4034855511        0.8813440117        0.7241556277
C             0.1726710698        0.1098756862        0.2294865276
C             0.0944710903        0.5965296335        0.7392160889
C             0.3263946785        0.3691431302        0.1980431247
C             0.0667155618        0.5064972036        0.6654034492
C             0.2865446415        0.4484909017        0.1136029626
C             0.1268311590        0.4788734004        0.5568112290
C             0.3522418645        0.4928229604        0.0196400562
C             0.4329939728        0.1060414388        0.4803199473
C             0.1689299746        0.8870806943        0.9826890113
C             0.0867606997        0.3917757099        0.4740096221
C             0.3146259313        0.5909418824        0.9535901349
C             0.7899908976        0.9881785468        0.5217648202
C             0.5272748902        0.0330669171        0.0518242744
C             0.8945993936        0.0238302737        0.5481541129
C             0.6294452648        0.9855466939        0.0697907569
C             0.9529259761        0.9742838123        0.6514043662
C             0.6994042798        0.0308152337        0.1629033713
C             0.7172429162        0.5414943826        0.5459420984
C             0.9596505826        0.4742588279        0.0136324591
C             0.7418844689        0.6292653714        0.6273916384
C             0.9999661834        0.3915960164        0.0921525054
C             0.7451817013        0.9075958022        0.5972216347
C             0.5006334726        0.1188763171        0.1330449197
C             0.9057963154        0.8826716390        0.7091892874
C             0.6667782644        0.1180445504        0.2379811277
C             0.5667151345        0.6468905292        0.6917731490
C             0.8474260876        0.3937546650        0.2163282539
C             0.5346760393        0.5613666922        0.6114324024
C             0.8080601436        0.4878119114        0.1550025134
C             0.6102403823        0.5029849746        0.5428475967
C             0.8631012358        0.5237541306        0.0440893894
C             0.9418213988        0.1040756965        0.4635615880
C             0.6672398381        0.8969739140        0.9887762383
C             0.5741554913        0.4086962855        0.4683031068
C             0.8192536144        0.6117525756        0.9650805355
C             0.5402638769        0.0159488982        0.7390238887
C             0.5796430019        0.1283290550        0.7486686866
C             0.9524398890        0.0048544820        0.9427788485
C             0.8646399498        0.0777376212        0.9058632979
C             0.2808898749        0.5282411179        0.4091823924
C             0.3460902971        0.6186207821        0.3597836130
C             0.5233076499        0.4719565439        0.8914928895
C             0.6291133284        0.4178877805        0.8825589173
C             0.0467200672        0.0128556045        0.7243424460
C             0.0888113836        0.1243701934        0.7304965140
C             0.4459760905        0.0049874535        0.9562282682
C             0.3592813951        0.0794282748        0.9191012957
[...]
O             0.3702636341        0.6475534845        0.8754817916
O             0.3813684852        0.1594384566        0.3970809603
O             0.1108722703        0.8360524370        0.8983376771
O             0.4766712063        0.3739866871        0.4737811434
O             0.2207298889        0.6285466730        0.9734704400
O             0.0479873344        0.1208981068        0.4648752224
O             0.2661555399        0.8531643865        0.9906011416
O             0.6330131746        0.3530470157        0.3930139513
O             0.8669963319        0.6655066625        0.8818003573
O             0.8917241914        0.1583464306        0.3797405603
O             0.6068116529        0.8439434281        0.9080645927
O             0.9948807911        0.3481562409        0.4911365785
O             0.7176216130        0.6413416819        0.9787450801
O             0.5378946664        0.1284536705        0.4840445866
O             0.7657207326        0.8676215536        0.9880797535
End final coordinates

     Writing output data file /nfs/hpc/share/gantzlen/NiPyC2_relax_sc211_meta_functionalized_CH2-CH3_pbesol_relax_frozen_parent_atoms_Round2.save/

     General routines

     Parallel routines

   This run was terminated on:  21:38:23   9Jul2020

   JOB DONE.
QE finished Thu Jul 9 21:38:23 PDT 2020