     Program PWSCF v.6.5 starts on  8Jul2020 at 10:22:16

     K-points division:     npool     =       2
     R & G space division:  proc/nbgrp/npool/nimage =       8
     Reading input from ./QE_input_scripts/pw.NiPyC2_relax_sc211_meta_functionalized_O-CH3_pbesol_relax_frozen_parent_atoms_Round2.in
Warning: card &CELL ignored
Warning: card    CELL_DYNAMICS = 'BFGS' ignored
Warning: card    CELL_DOFREE = 'XYZ' ignored
Warning: card / ignored

     Current dimensions of program PWSCF are:
     Max number of different atomic species (ntypx) = 10
     Max number of k-points (npk) =  40000
     Max angular momentum in pseudopotentials (lmaxx) =  3

     Parameters for Dispersion (Grimme-D2) Correction:
       atom      VdW radius       C_6

        C          2.744         60.710
        H          1.892          4.857
        N          2.640         42.670
        Ni         2.952        374.666
        O          2.536         24.284

     gamma-point specific algorithms are used

     Subspace diagonalization in iterative solution of the eigenvalue problem:
     a serial algorithm will be used

     bravais-lattice index     =            0
     lattice parameter (alat)  =      23.6322  a.u.
     unit-cell volume          =   10858.6596 (a.u.)^3
     number of atoms/cell      =          140
     number of atomic types    =            5
     number of electrons       =       496.00 (up: 252.00, down: 244.00)
     number of Kohn-Sham states=          302
     kinetic-energy cutoff     =     100.0000  Ry
     charge density cutoff     =     400.0000  Ry
     convergence threshold     =      1.0E-06
     mixing beta               =       0.7000
     number of iterations used =            8  local-TF  mixing
     Exchange-correlation= PBESOL
                           (   1   4  10   8   0   0   0)
     nstep                     =          200

     celldm(1)=  23.632191  celldm(2)=   0.000000  celldm(3)=   0.000000
     celldm(4)=   0.000000  celldm(5)=   0.000000  celldm(6)=   0.000000

     crystal axes: (cart. coord. in units of alat)
               a(1) = (   1.000000   0.000000   0.000000 )
               a(2) = (   0.000000   1.001423   0.000000 )
               a(3) = (  -0.018199   0.000000   0.821574 )

     reciprocal axes: (cart. coord. in units 2 pi/alat)
               b(1) = (  1.000000  0.000000  0.022151 )
               b(2) = (  0.000000  0.998579  0.000000 )
               b(3) = (  0.000000  0.000000  1.217176 )

     PseudoPot. # 1 for C  read from file:
     ./pseudo/C.pbesol-nc.UPF
     MD5 check sum: ce26087537ded160c8d400e183a8bf42
     Pseudo is Norm-conserving, Zval =  4.0
     Generated using "atomic" code by A. Dal Corso v.6.5
     Using radial grid of 1073 points,  1 beta functions with:
                l(1) =   1

     PseudoPot. # 2 for H  read from file:
     ./pseudo/H.pbesol-n-nc.UPF
     MD5 check sum: 7995ef24074557c85b430109caaacc09
     Pseudo is Norm-conserving, Zval =  1.0
     Generated using "atomic" code by A. Dal Corso v.6.5
     Using radial grid of  929 points,  0 beta functions with:

     PseudoPot. # 3 for N  read from file:
     ./pseudo/N.pbesol-nc.UPF
     MD5 check sum: e18cc5e4b8a5600c1a19b30c2cab1ca0
     Pseudo is Norm-conserving, Zval =  5.0
     Generated using "atomic" code by A. Dal Corso v.6.5
     Using radial grid of 1085 points,  1 beta functions with:
                l(1) =   1

     PseudoPot. # 4 for Ni read from file:
     ./pseudo/Ni.pbesol-n-nc.UPF
     MD5 check sum: 623411631e0c2eb7c0b2b9815547d2d9
     Pseudo is Norm-conserving + core correction, Zval = 10.0
     Generated using "atomic" code by A. Dal Corso v.6.5
     Using radial grid of 1195 points,  2 beta functions with:
                l(1) =   1
                l(2) =   2

     PseudoPot. # 5 for O  read from file:
     ./pseudo/O.pbesol-nc.UPF
     MD5 check sum: 73d10e7e91dbfcbe8a7e362101007f84
     Pseudo is Norm-conserving, Zval =  6.0
     Generated using "atomic" code by A. Dal Corso v.6.5
     Using radial grid of 1095 points,  1 beta functions with:
                l(1) =   1

     atomic species   valence    mass     pseudopotential
        C              4.00    12.01070     C ( 1.00)
        H              1.00     1.00794     H ( 1.00)
        N              5.00    14.00670     N ( 1.00)
        Ni            10.00    58.69340     Ni( 1.00)
        O              6.00    15.99940     O ( 1.00)

     Starting magnetic structure
     atomic species   magnetization
        C            0.000
        H            0.000
        N            0.000
        Ni           0.250
        O            0.000

     No symmetry found

   Cartesian axes

     site n.     atom                  positions (alat units)
         1           C   tau(   1) = (   0.2787124   0.9714303   0.4288485  )
         2           C   tau(   2) = (   0.0379730   0.0311503   0.0183277  )
         3           C   tau(   3) = (   0.3806884   0.0117867   0.4489836  )
         4           C   tau(   4) = (   0.1394042   0.9891495   0.0379124  )
         5           C   tau(   5) = (   0.4400789   0.9715826   0.5343279  )
         6           C   tau(   6) = (   0.1997921   0.0283933   0.1231482  )
         7           C   tau(   7) = (   0.1986013   0.5304577   0.4324634  )
         8           C   tau(   8) = (   0.4580372   0.4720798   0.0229252  )
         9           C   tau(   9) = (   0.2341005   0.6142037   0.4982312  )
        10           C   tau(  10) = (   0.4948423   0.3892301   0.0892369  )
        11           C   tau(  11) = (   0.2384983   0.8904713   0.4955759  )
        12           C   tau(  12) = (  -0.0008282   0.1123917   0.0856466  )
        13           C   tau(  13) = (   0.3947363   0.8906486   0.5977378  )
        14           C   tau(  14) = (   0.1557890   0.1097029   0.1871644  )
        15           C   tau(  15) = (   0.0756249   0.6098496   0.5975735  )
        16           C   tau(  16) = (   0.3367153   0.3921903   0.1884642  )
        17           C   tau(  17) = (   0.0350718   0.5258262   0.5351010  )
        18           C   tau(  18) = (   0.2948780   0.4753865   0.1254987  )
        19           C   tau(  19) = (   0.0981524   0.4849591   0.4519610  )
        20           C   tau(  20) = (   0.3569104   0.5163898   0.0416029  )
        21           C   tau(  21) = (   0.4248180   0.0994603   0.3833637  )
        22           C   tau(  22) = (   0.1639427   0.9010003   0.7933710  )
        23           C   tau(  23) = (   0.0588122   0.3950353   0.3866952  )
        24           C   tau(  24) = (   0.2984062   0.6050317   0.7961931  )
        25           C   tau(  25) = (   0.7787124   0.9714303   0.4288485  )
        26           C   tau(  26) = (   0.5379730   0.0311503   0.0183277  )
        27           C   tau(  27) = (   0.8806884   0.0117867   0.4489836  )
        28           C   tau(  28) = (   0.6394042   0.9891495   0.0379124  )
        29           C   tau(  29) = (   0.9400789   0.9715826   0.5343279  )
        30           C   tau(  30) = (   0.6997921   0.0283933   0.1231482  )
        31           C   tau(  31) = (   0.6986023   0.5304577   0.4324634  )
        32           C   tau(  32) = (   0.9580382   0.4720798   0.0229252  )
        33           C   tau(  33) = (   0.7341005   0.6142037   0.4982312  )
        34           C   tau(  34) = (   0.9948423   0.3892301   0.0892369  )
        35           C   tau(  35) = (   0.7384983   0.8904713   0.4955759  )
        36           C   tau(  36) = (   0.4991718   0.1123917   0.0856466  )
        37           C   tau(  37) = (   0.8947363   0.8906486   0.5977378  )
        38           C   tau(  38) = (   0.6557880   0.1097029   0.1871644  )
        39           C   tau(  39) = (   0.5756249   0.6098496   0.5975735  )
        40           C   tau(  40) = (   0.8367153   0.3921903   0.1884642  )
        41           C   tau(  41) = (   0.5350718   0.5258262   0.5351010  )
        42           C   tau(  42) = (   0.7948780   0.4753865   0.1254987  )
        43           C   tau(  43) = (   0.5981524   0.4849591   0.4519610  )
        44           C   tau(  44) = (   0.8569104   0.5163898   0.0416029  )
        45           C   tau(  45) = (   0.9248180   0.0994603   0.3833637  )
        46           C   tau(  46) = (   0.6639427   0.9010003   0.7933710  )
        47           C   tau(  47) = (   0.5588112   0.3950353   0.3866952  )
        48           C   tau(  48) = (   0.7984062   0.6050317   0.7961931  )
        49           C   tau(  49) = (   0.5624612   0.1106372   0.5945813  )
        50           C   tau(  50) = (   0.8709513   0.0785847   0.7325376  )
        51           C   tau(  51) = (   0.3522110   0.5739986   0.3316259  )
        52           C   tau(  52) = (   0.5880235   0.4222310   0.7383050  )
        53           C   tau(  53) = (   0.6259649   0.9297461   0.3253573  )
        54           C   tau(  54) = (   0.8383198   0.8992187   0.1763426  )
        55           C   tau(  55) = (   0.8564987   0.5664909   0.3360657  )
        56           C   tau(  56) = (   0.6572798   0.6085016   0.1752565  )
        57           H   tau(  57) = (   0.2290598   1.0009974   0.3640501  )
        58           H   tau(  58) = (   0.4693672   0.0026958   0.7751543  )
        59           H   tau(  59) = (   0.0198056   1.0002263   0.5533465  )
        60           H   tau(  60) = (   0.2791988   1.0000861   0.1418053  )
[...]
       126           O   tau( 126) = (   0.8551693   0.6519033   0.7240466  )
       127           O   tau( 127) = (   0.8707657   0.1477169   0.3098796  )
       128           O   tau( 128) = (   0.6091509   0.8535649   0.7199133  )
       129           O   tau( 129) = (   0.9642790   0.3566668   0.3968153  )
       130           O   tau( 130) = (   0.7033042   0.6423277   0.8050415  )
       131           O   tau( 131) = (   0.5200849   0.1353503   0.3952412  )
       132           O   tau( 132) = (   0.7588619   0.8639857   0.8046488  )
       133           O   tau( 133) = (   0.5367710   0.0013479   0.5675047  )
       134           O   tau( 134) = (   0.9633165   0.0103177   0.7534269  )
       135           O   tau( 135) = (   0.2583296   0.5071046   0.3488913  )
       136           O   tau( 136) = (   0.4976937   0.4931057   0.7587926  )
       137           O   tau( 137) = (   0.7175711   0.9982755   0.3474239  )
       138           O   tau( 138) = (   0.7999765   0.0029632   0.1486342  )
       139           O   tau( 139) = (   0.7641658   0.4990471   0.3562838  )
       140           O   tau( 140) = (   0.6957013   0.5021505   0.1534741  )

     number of k points=     1  Marzari-Vanderbilt smearing, width (Ry)=  0.2000
                       cart. coord. in units 2pi/alat
        k(    1) = (   0.0000000   0.0000000   0.0000000), wk =   1.0000000

     Check: negative core charge=   -0.000145

     Initial potential from superposition of free atoms

     starting charge  495.99618, renormalised to  496.00000
     Starting wfcs are  436 randomized atomic wfcs

     Self-consistent Calculation

     iteration #  1     ecut=   100.00 Ry     beta= 0.70
     Davidson diagonalization with overlap
     ethr =  1.00E-02,  avg # of iterations =  4.0

[...]
     atom:   56    charge:    0.8195    magn:    0.0008    constr:    0.0000
     atom:   57    charge:    0.2544    magn:   -0.0005    constr:    0.0000
     atom:   58    charge:    0.0995    magn:    0.0003    constr:    0.0000
     atom:   59    charge:    0.2318    magn:   -0.0005    constr:    0.0000
     atom:   60    charge:    0.3808    magn:   -0.0010    constr:    0.0000
[...]
     atom:  126    charge:    2.9817    magn:    0.0560    constr:    0.0000
     atom:  127    charge:    3.0434    magn:    0.0561    constr:    0.0000
     atom:  128    charge:    2.4646    magn:    0.0469    constr:    0.0000
     atom:  129    charge:    3.0651    magn:    0.0586    constr:    0.0000
     atom:  130    charge:    3.1614    magn:    0.0551    constr:    0.0000
     atom:  131    charge:    3.1722    magn:    0.0552    constr:    0.0000
     atom:  132    charge:    3.1047    magn:    0.0542    constr:    0.0000
     atom:  133    charge:    1.4595    magn:    0.0155    constr:    0.0000
     atom:  134    charge:    2.8682    magn:    0.0240    constr:    0.0000
     atom:  135    charge:    2.8875    magn:    0.0237    constr:    0.0000
     atom:  136    charge:    2.5592    magn:    0.0207    constr:    0.0000
     atom:  137    charge:    2.9130    magn:    0.0233    constr:    0.0000
     atom:  138    charge:    3.1696    magn:    0.0342    constr:    0.0000
     atom:  139    charge:    2.9760    magn:    0.0240    constr:    0.0000
     atom:  140    charge:    3.1746    magn:    0.0332    constr:    0.0000

     End of self-consistent calculation

 ------ SPIN UP ------------

[...]

 ------ SPIN DOWN ----------

          k = 0.0000 0.0000 0.0000 ( 91663 PWs)   bands (ev):

   -21.3899 -21.3600 -21.3016 -21.2984 -21.2818 -21.2749 -21.2595 -21.1910
   -21.1267 -21.0973 -21.0758 -21.0447 -21.0215 -21.0001 -20.9827 -20.9786
   -18.2158 -18.1604 -18.1452 -18.1281 -18.1203 -18.1101 -18.0950 -18.0778
   -18.0660 -18.0612 -18.0565 -18.0440 -18.0279 -18.0028 -17.9794 -17.9731
   -14.3829 -14.3558 -14.3413 -14.3159 -14.3087 -14.3060 -14.2824 -14.2666
   -13.2135 -13.1816 -13.1509 -13.0188 -12.9776 -12.9715 -12.8917 -12.8607
   -11.6569 -11.6259 -11.6175 -11.5706 -11.5513 -11.5445 -11.5321 -11.5186
   -10.7056 -10.6124 -10.5883 -10.5301 -10.5034 -10.3998 -10.3626 -10.3507
    -9.4336  -9.4042  -9.3473  -9.3327  -9.2822  -9.2431  -9.2289  -9.2179
    -8.4478  -8.2894  -8.2384  -8.1356  -8.0639  -8.0501  -8.0008  -7.9211
    -7.3138  -7.1466  -7.0871  -7.0526  -7.0420  -7.0184  -6.9871  -6.9655
    -6.7778  -6.7682  -6.7659  -6.7415  -6.7171  -6.6515  -6.6321  -6.5719
    -6.5292  -6.3393  -6.2374  -6.1784  -6.1142  -6.0529  -6.0276  -5.9835
    -5.9358  -5.8367  -5.8218  -5.7576  -5.6659  -5.5876  -5.5641  -5.5364
    -5.5263  -5.4981  -5.4558  -5.4301  -5.3794  -5.3285  -5.3082  -5.2726
    -5.2512  -5.2425  -5.2113  -5.1993  -5.1544  -5.1190  -5.0768  -5.0080
    -4.9760  -4.9442  -4.9179  -4.8975  -4.8135  -4.7548  -4.7424  -4.7090
    -4.7011  -4.6697  -4.6387  -4.6244  -4.5590  -4.5348  -4.4448  -4.3647
    -4.3379  -4.3154  -4.2893  -4.2557  -4.2146  -4.1917  -4.1765  -4.0957
    -4.0397  -3.9868  -3.8916  -3.8505  -3.8355  -3.7406  -3.7057  -3.6699
    -3.4556  -3.3964  -3.3694  -3.3132  -3.1814  -3.1455  -3.1149  -3.0670
    -3.0442  -3.0273  -3.0035  -2.8844  -2.8582  -2.7899  -2.6987  -2.6714
    -2.6619  -2.6505  -2.5939  -2.5156  -2.4851  -2.4626  -2.4117  -2.3660
    -2.3382  -2.2846  -2.2518  -2.1876  -2.1350  -2.0482  -1.9845  -1.9609
    -1.7934  -1.7731  -1.7278  -1.6663  -1.6394  -1.5997  -1.5410  -1.4785
    -1.4368  -1.4140  -1.3577  -1.3290  -1.3060  -1.2924  -1.2366  -1.2235
    -1.1454  -1.0869  -1.0751  -1.0386  -1.0249  -1.0144  -0.9753  -0.9289
    -0.8611  -0.8405  -0.7902  -0.7540  -0.7248  -0.6785  -0.6384  -0.4801
    -0.2572  -0.1554  -0.1363  -0.1231  -0.0898  -0.0156   0.0078   0.0144
     0.0357   0.0832   0.0868   0.1136   0.1486   0.1921   0.2088   0.2452
     0.2726   0.3000   0.3224   0.3984   1.6292   1.7174   1.7634   1.7965
     1.9953   2.0517   2.1245   2.2110   3.1431   3.1741   3.1946   3.2161
     3.2402   3.2911   3.3116   3.3312   4.2949   4.4107   4.5090   4.5700
     4.6698   4.7112   4.7328   4.8408   4.9249   5.3532   5.4898   5.5315
     5.6787   5.7296   5.7700   5.7885   5.8074   5.8571   5.8740   5.9025
     6.2017   6.3016   6.3851   6.5606   6.6076   6.6646   6.8070   7.0432
     7.0774   7.1331   7.1808   7.3022   7.3294   7.3498   7.4211   7.5038
     7.5720   7.5902   7.6466   7.7372   7.8232   7.9032

     the spin up/dw Fermi energies are     1.5519    1.2062 ev

!    total energy              =   -1987.67590022 Ry
     Harris-Foulkes estimate   =   -1987.67590022 Ry
     estimated scf accuracy    <          1.7E-09 Ry

     The total energy is the sum of the following terms:

     one-electron contribution =   -2473.24535337 Ry
     hartree contribution      =    1428.61015759 Ry
     xc contribution           =    -587.95755162 Ry
     ewald contribution        =    -357.73518034 Ry
     Dispersion Correction     =      -0.66870575 Ry
     smearing contrib. (-TS)   =       3.32073327 Ry

     total magnetization       =     8.00 Bohr mag/cell
     absolute magnetization    =     8.27 Bohr mag/cell

     convergence has been achieved in  13 iterations

     Forces acting on atoms (cartesian axes, Ry/au):

     atom    1 type  1   force =    -0.00040665   -0.00028887   -0.00017922
     atom    2 type  1   force =    -0.00064054   -0.00045494    0.00048638
     atom    3 type  1   force =     0.00015280    0.00045271    0.00062442
     atom    4 type  1   force =     0.00044357    0.00061658   -0.00012537
     atom    5 type  1   force =     0.00019324   -0.00043072   -0.00030508
     atom    6 type  1   force =     0.00039104   -0.00007001   -0.00012161
     atom    7 type  1   force =     0.00037858   -0.00022333    0.00095108
     atom    8 type  1   force =     0.00079520    0.00036114    0.00013452
     atom    9 type  1   force =    -0.00027520    0.00007514    0.00006781
     atom   10 type  1   force =    -0.00046709   -0.00045972   -0.00033680
     atom   11 type  1   force =     0.00042981   -0.00020431   -0.00025591
     atom   12 type  1   force =     0.00016111    0.00016746    0.00025075
     atom   13 type  1   force =     0.00013534   -0.00063720    0.00022268
     atom   14 type  1   force =     0.00044984    0.00015977   -0.00009681
     atom   15 type  1   force =    -0.00041067   -0.00003599    0.00009050
     atom   16 type  1   force =    -0.00040671   -0.00001838    0.00027372
     atom   17 type  1   force =    -0.00001608   -0.00000812    0.00001199
     atom   18 type  1   force =     0.00031104    0.00014956   -0.00015493
     atom   19 type  1   force =    -0.00049085    0.00034284   -0.00027944
     atom   20 type  1   force =    -0.00025951   -0.00048403   -0.00013224
     atom   21 type  1   force =     0.00011870   -0.00038065    0.00027493
     atom   22 type  1   force =    -0.00050966   -0.00022446    0.00037842
     atom   23 type  1   force =     0.00051749   -0.00030235    0.00090575
     atom   24 type  1   force =     0.00010766    0.00014333    0.00037838
     atom   25 type  1   force =    -0.00031555    0.00024247   -0.00038965
     atom   26 type  1   force =     0.00013784   -0.00002086    0.00021341
     atom   27 type  1   force =    -0.00030932   -0.00030332    0.00000517
     atom   28 type  1   force =     0.00004470    0.00019478    0.00036864
     atom   29 type  1   force =    -0.00003500    0.00046336    0.00010970
     atom   30 type  1   force =    -0.00007630   -0.00013660    0.00015602
     atom   31 type  1   force =    -0.00018693    0.00024943    0.00027778
     atom   32 type  1   force =    -0.00034831    0.00026863    0.00031769
     atom   33 type  1   force =    -0.00028553    0.00005850    0.00000717
     atom   34 type  1   force =     0.00050634   -0.00025213   -0.00059296
     atom   35 type  1   force =     0.00001016   -0.00013026   -0.00023411
     atom   36 type  1   force =    -0.00030645   -0.00012273   -0.00041487
     atom   37 type  1   force =     0.00036434    0.00010632    0.00012891
     atom   38 type  1   force =    -0.00015940    0.00039810   -0.00048952
     atom   39 type  1   force =     0.00006440   -0.00017597    0.00002413
     atom   40 type  1   force =     0.00027578   -0.00001276   -0.00039383
     atom   41 type  1   force =     0.00024303    0.00008048    0.00031516
     atom   42 type  1   force =    -0.00012339   -0.00029633   -0.00013543
     atom   43 type  1   force =     0.00005888   -0.00014567    0.00035097
     atom   44 type  1   force =     0.00023156   -0.00024567    0.00017884
     atom   45 type  1   force =     0.00013667    0.00029831   -0.00073930
     atom   46 type  1   force =    -0.00011307   -0.00004188    0.00036928
     atom   47 type  1   force =    -0.00046366    0.00041914    0.00007518
     atom   48 type  1   force =     0.00038807    0.00005046    0.00010207
     atom   49 type  1   force =    -0.00072834    0.00035514    0.00021433
     atom   50 type  1   force =     0.00007436   -0.00043102   -0.00040855
     atom   51 type  1   force =     0.00028145    0.00012685   -0.00021754
     atom   52 type  1   force =     0.00041523   -0.00003697   -0.00001579
     atom   53 type  1   force =    -0.00022456    0.00010735   -0.00022526
     atom   54 type  1   force =     0.00021474    0.00015986    0.00019456
     atom   55 type  1   force =     0.00021005   -0.00000584    0.00007927
     atom   56 type  1   force =    -0.00016918   -0.00046810    0.00004545
     atom   57 type  2   force =    -0.00008224   -0.00027992    0.00003518
     atom   58 type  2   force =     0.00043105    0.00018531   -0.00017976
     atom   59 type  2   force =    -0.00033128    0.00006301    0.00022223
     atom   60 type  2   force =    -0.00015499   -0.00032352    0.00046925
[...]
     atom  126 type  5   force =     0.00007777    0.00005163    0.00051891
     atom  127 type  5   force =     0.00058002   -0.00017239    0.00009318
     atom  128 type  5   force =    -0.00011045    0.00061037    0.00055340
     atom  129 type  5   force =    -0.00004842   -0.00014920    0.00003319
     atom  130 type  5   force =     0.00053424    0.00047711   -0.00032230
     atom  131 type  5   force =    -0.00028002    0.00028674    0.00042182
     atom  132 type  5   force =    -0.00013154   -0.00079596    0.00031069
     atom  133 type  5   force =    -0.00011177    0.00023933   -0.00010785
     atom  134 type  5   force =     0.00048999    0.00035639    0.00016718
     atom  135 type  5   force =    -0.00005651    0.00060214    0.00017865
     atom  136 type  5   force =     0.00023684   -0.00039599   -0.00011210
     atom  137 type  5   force =    -0.00004529   -0.00005151    0.00003647
     atom  138 type  5   force =    -0.00068470   -0.00021666    0.00030644
     atom  139 type  5   force =     0.00045484   -0.00020990    0.00017921
     atom  140 type  5   force =    -0.00003989   -0.00013599   -0.00015144

     Total force =     0.006280     Total SCF correction =     0.000100

     bfgs converged in  65 scf cycles and  64 bfgs steps
     (criteria: energy <  1.0E-04 Ry, force <  1.0E-03 Ry/Bohr)

     End of BFGS Geometry Optimization

     Final energy   =   -1987.6759002154 Ry
Begin final coordinates

ATOMIC_POSITIONS (crystal)
C             0.2893491100        0.9910025673        0.5513703392
C             0.0383786750        0.0451636813        0.0110212738
C             0.3896863827        0.0362431421        0.5785740076
C             0.1343710938        0.9871373431        0.0403003187
C             0.4486875448        0.9908004994        0.6858824035
C             0.1934279358        0.0198932098        0.1500017464
C             0.2115989587        0.5415763383        0.5171907213
C             0.4593525652        0.4465745096        0.0087539545
C             0.2429128414        0.6256136064        0.6036709327
C             0.4946494608        0.3684880699        0.1014886194
C             0.2516260699        0.9032216535        0.6207885244
C             0.0044771337        0.1247227326        0.1007577229
C             0.4078553609        0.8967900746        0.7464550650
C             0.1570264753        0.1015102048        0.2310574579
C             0.0951030404        0.5975869818        0.7331050358
C             0.3337552030        0.3759512779        0.2096446671
C             0.0621711332        0.5109481268        0.6559355746
C             0.2964555923        0.4576631679        0.1264614888
C             0.1196797173        0.4795155276        0.5473161144
C             0.3596212874        0.4991599310        0.0283372861
C             0.4306326745        0.1163585578        0.4875892059
C             0.1751556658        0.8969489879        0.9632314461
C             0.0786943234        0.3892396014        0.4686961458
C             0.3210285131        0.5940857307        0.9556543459
C             0.7735419718        0.9613617672        0.5219119809
C             0.5292983535       -0.0002961500        0.0594430550
C             0.8795922907        0.0038185114        0.5324850306
C             0.6373981912        0.9709166224        0.0632436309
C             0.9485708261        0.9538666906        0.6222547119
C             0.7054254223        0.0312803828        0.1486441869
C             0.7231884900        0.5350717942        0.5249096735
C             0.9646366800        0.4900102287        0.0579515014
C             0.7537403346        0.6162325465        0.6151341863
C             1.0017463428        0.4031302765        0.1315208891
C             0.7415113825        0.8837957103        0.6144823346
C             0.4917406600        0.0849810015        0.1335795141
C             0.9127423330        0.8738760851        0.7064321279
C             0.6628439728        0.1215580074        0.2149016328
C             0.5854580971        0.6179587233        0.7073477549
C             0.8339585445        0.3763914554        0.2187669018
C             0.5511519526        0.5352062986        0.6243658459
C             0.7923901878        0.4690251104        0.1534793467
C             0.6191931846        0.4890370232        0.5341587727
C             0.8587566002        0.5250709867        0.0652268850
C             0.9212894512        0.0957280271        0.4591011759
C             0.6769755439        0.8882527815        0.9749367280
C             0.5783835322        0.3974435344        0.4578030680
C             0.8195582317        0.6089192314        0.9761798597
C             0.5750644874        0.1322051267        0.7425322088
C             0.8888815299        0.0912568926        0.8759244446
C             0.3537672586        0.5922325439        0.3815585105
C             0.6113649970        0.4051045351        0.8848610379
C             0.6111468371        0.9273184898        0.4068060700
C             0.8461134631        0.9067557803        0.2076761773
C             0.8820036738        0.5707073995        0.4125495576
C             0.6579899197        0.6001440073        0.2104083212
H             0.2390157837        1.0238357211        0.4737335263
H             0.4723165905       -0.0444844671        0.9990233793
H             0.0307352367        0.9808121634        0.6330897514
H             0.2687891721        0.9808579923        0.1745327954
[...]
O             0.8798774525        0.6578366274        0.8959609047
O             0.8662336899        0.1570325982        0.3833431420
O             0.6156874805        0.8332765595        0.8988047476
O             0.9842395058        0.3517682765        0.4867171259
O             0.7208623276        0.6375235468        0.9691384871
O             0.5292791396        0.1447337037        0.4842898498
O             0.7770356928        0.8661174541        0.9651376727
O             0.5389377730        0.0225633980        0.7420706023
O             0.9832194264        0.0264121953        0.9035205654
O             0.2647893111        0.5224458338        0.4111257325
O             0.5166094800        0.4692683825        0.9070973196
O             0.7075074825        0.9906244240        0.4275303669
O             0.8071874864        0.0129139654        0.1783419298
O             0.7888381922        0.5047092106        0.4342007986
O             0.6936433827        0.4922420037        0.1865683977
End final coordinates

     Writing output data file /nfs/hpc/share/gantzlen/NiPyC2_relax_sc211_meta_functionalized_O-CH3_pbesol_relax_frozen_parent_atoms_Round2.save/

     General routines

     Parallel routines

   This run was terminated on:   6: 5:42   9Jul2020

   JOB DONE.
QE finished Thu Jul 9 06:05:42 PDT 2020