     Program PWSCF v.6.5 starts on 21Jun2020 at 23: 0:23

     K-points division:     npool     =       2
     R & G space division:  proc/nbgrp/npool/nimage =      16
     Reading input from QE_input_scripts/pw.NiPyC2_relax_sc211_meta_functionalized_Br_pbesol_relax.in
Warning: card &CELL ignored
Warning: card    CELL_DYNAMICS = 'BFGS' ignored
Warning: card    CELL_DOFREE = 'XYZ' ignored
Warning: card / ignored

     Current dimensions of program PWSCF are:
     Max number of different atomic species (ntypx) = 10
     Max number of k-points (npk) =  40000
     Max angular momentum in pseudopotentials (lmaxx) =  3

     Parameters for Dispersion (Grimme-D2) Correction:
       atom      VdW radius       C_6

        Br         3.305        432.600
        C          2.744         60.710
        H          1.892          4.857
        N          2.640         42.670
        Ni         2.952        374.666
        O          2.536         24.284

     gamma-point specific algorithms are used

     Subspace diagonalization in iterative solution of the eigenvalue problem:
     a serial algorithm will be used

     bravais-lattice index     =            0
     lattice parameter (alat)  =      23.6322  a.u.
     unit-cell volume          =   10858.6228 (a.u.)^3
     number of atoms/cell      =          108
     number of atomic types    =            6
     number of electrons       =       448.00 (up: 228.00, down: 220.00)
     number of Kohn-Sham states=          274
     kinetic-energy cutoff     =     100.0000  Ry
     charge density cutoff     =     400.0000  Ry
     convergence threshold     =      1.0E-06
     mixing beta               =       0.7000
     number of iterations used =            8  local-TF  mixing
     Exchange-correlation= PBESOL
                           (   1   4  10   8   0   0   0)
     nstep                     =          200

     celldm(1)=  23.632159  celldm(2)=   0.000000  celldm(3)=   0.000000
     celldm(4)=   0.000000  celldm(5)=   0.000000  celldm(6)=   0.000000

     crystal axes: (cart. coord. in units of alat)
               a(1) = (   1.000000   0.000000   0.000000 )
               a(2) = (   0.000000   1.001423   0.000000 )
               a(3) = (  -0.018199   0.000000   0.821574 )

     reciprocal axes: (cart. coord. in units 2 pi/alat)
               b(1) = (  1.000000  0.000000  0.022152 )
               b(2) = (  0.000000  0.998579  0.000000 )
               b(3) = (  0.000000  0.000000  1.217175 )

     PseudoPot. # 1 for Br read from file:
     ./pseudo/Br.pbesol-n-nc.UPF
     MD5 check sum: aa882b714d6bd557db24118bfa7419d9
     Pseudo is Norm-conserving + core correction, Zval =  7.0
     Generated using "atomic" code by A. Dal Corso v.6.5
     Using radial grid of 1213 points,  2 beta functions with:
                l(1) =   0
                l(2) =   1

     PseudoPot. # 2 for C  read from file:
     ./pseudo/C.pbesol-nc.UPF
     MD5 check sum: ce26087537ded160c8d400e183a8bf42
     Pseudo is Norm-conserving, Zval =  4.0
     Generated using "atomic" code by A. Dal Corso v.6.5
     Using radial grid of 1073 points,  1 beta functions with:
                l(1) =   1

     PseudoPot. # 3 for H  read from file:
     ./pseudo/H.pbesol-n-nc.UPF
     MD5 check sum: 7995ef24074557c85b430109caaacc09
     Pseudo is Norm-conserving, Zval =  1.0
     Generated using "atomic" code by A. Dal Corso v.6.5
     Using radial grid of  929 points,  0 beta functions with:

     PseudoPot. # 4 for N  read from file:
     ./pseudo/N.pbesol-nc.UPF
     MD5 check sum: e18cc5e4b8a5600c1a19b30c2cab1ca0
     Pseudo is Norm-conserving, Zval =  5.0
     Generated using "atomic" code by A. Dal Corso v.6.5
     Using radial grid of 1085 points,  1 beta functions with:
                l(1) =   1

     PseudoPot. # 5 for Ni read from file:
     ./pseudo/Ni.pbesol-n-nc.UPF
     MD5 check sum: 623411631e0c2eb7c0b2b9815547d2d9
     Pseudo is Norm-conserving + core correction, Zval = 10.0
     Generated using "atomic" code by A. Dal Corso v.6.5
     Using radial grid of 1195 points,  2 beta functions with:
                l(1) =   1
                l(2) =   2

     PseudoPot. # 6 for O  read from file:
     ./pseudo/O.pbesol-nc.UPF
     MD5 check sum: 73d10e7e91dbfcbe8a7e362101007f84
     Pseudo is Norm-conserving, Zval =  6.0
     Generated using "atomic" code by A. Dal Corso v.6.5
     Using radial grid of 1095 points,  1 beta functions with:
                l(1) =   1

     atomic species   valence    mass     pseudopotential
        Br             7.00    79.90400     Br( 1.00)
        C              4.00    12.01070     C ( 1.00)
        H              1.00     1.00794     H ( 1.00)
        N              5.00    14.00670     N ( 1.00)
        Ni            10.00    58.69340     Ni( 1.00)
        O              6.00    15.99940     O ( 1.00)

     Starting magnetic structure
     atomic species   magnetization
        Br           0.000
        C            0.000
        H            0.000
        N            0.000
        Ni           0.250
        O            0.000

     No symmetry found

   Cartesian axes

     site n.     atom                  positions (alat units)
         1           Br  tau(   1) = (   0.5819058   0.0163072   0.5721082  )
         2           Br  tau(   2) = (   0.3412546   0.9818255   0.1599580  )
         3           Br  tau(   3) = (   0.8945211   0.4745345   0.5707370  )
         4           Br  tau(   4) = (   0.1539678   0.5253747   0.1617129  )
         5           Br  tau(   5) = (   0.0819058   0.0163072   0.5721082  )
         6           Br  tau(   6) = (   0.4273232   0.9882997   0.7249892  )
         7           Br  tau(   7) = (   0.7936544   0.4858736   0.3199120  )
         8           Br  tau(   8) = (   0.6539678   0.5253747   0.1617129  )
         9           C   tau(   9) = (   0.2787122   0.9714307   0.4288486  )
        10           C   tau(  10) = (   0.0379730   0.0311503   0.0183277  )
        11           C   tau(  11) = (   0.3806882   0.0117868   0.4489838  )
        12           C   tau(  12) = (   0.1394042   0.9891499   0.0379124  )
        13           C   tau(  13) = (   0.4400787   0.9715829   0.5343281  )
        14           C   tau(  14) = (   0.1997920   0.0283934   0.1231482  )
        15           C   tau(  15) = (   0.1986011   0.5304580   0.4324635  )
        16           C   tau(  16) = (   0.4580372   0.4720800   0.0229252  )
        17           C   tau(  17) = (   0.2341003   0.6142040   0.4982314  )
        18           C   tau(  18) = (   0.4948422   0.3892302   0.0892369  )
        19           C   tau(  19) = (   0.2384981   0.8904717   0.4955761  )
        20           C   tau(  20) = (  -0.0008282   0.1123917   0.0856467  )
        21           C   tau(  21) = (   0.3947360   0.8906489   0.5977380  )
        22           C   tau(  22) = (   0.1557890   0.1097029   0.1871645  )
        23           C   tau(  23) = (   0.0756247   0.6098498   0.5975737  )
        24           C   tau(  24) = (   0.3367152   0.3921904   0.1884642  )
        25           C   tau(  25) = (   0.0350715   0.5258264   0.5351012  )
        26           C   tau(  26) = (   0.2948780   0.4753867   0.1254988  )
        27           C   tau(  27) = (   0.0981522   0.4849593   0.4519611  )
        28           C   tau(  28) = (   0.3569104   0.5163900   0.0416029  )
        29           C   tau(  29) = (   0.4248178   0.0994604   0.3833638  )
        30           C   tau(  30) = (   0.1639424   0.9010006   0.7933713  )
        31           C   tau(  31) = (   0.0588120   0.3950355   0.3866953  )
        32           C   tau(  32) = (   0.2984059   0.6050320   0.7961934  )
        33           C   tau(  33) = (   0.7787122   0.9714307   0.4288486  )
        34           C   tau(  34) = (   0.5379730   0.0311503   0.0183277  )
        35           C   tau(  35) = (   0.8806882   0.0117868   0.4489838  )
        36           C   tau(  36) = (   0.6394042   0.9891499   0.0379124  )
        37           C   tau(  37) = (   0.9400787   0.9715829   0.5343281  )
        38           C   tau(  38) = (   0.6997920   0.0283934   0.1231482  )
        39           C   tau(  39) = (   0.6986021   0.5304580   0.4324635  )
        40           C   tau(  40) = (   0.9580382   0.4720800   0.0229252  )
        41           C   tau(  41) = (   0.7341003   0.6142040   0.4982314  )
        42           C   tau(  42) = (   0.9948422   0.3892302   0.0892369  )
        43           C   tau(  43) = (   0.7384981   0.8904717   0.4955761  )
        44           C   tau(  44) = (   0.4991718   0.1123917   0.0856467  )
        45           C   tau(  45) = (   0.8947360   0.8906489   0.5977380  )
        46           C   tau(  46) = (   0.6557880   0.1097029   0.1871645  )
        47           C   tau(  47) = (   0.5756247   0.6098498   0.5975737  )
        48           C   tau(  48) = (   0.8367152   0.3921904   0.1884642  )
        49           C   tau(  49) = (   0.5350715   0.5258264   0.5351012  )
        50           C   tau(  50) = (   0.7948780   0.4753867   0.1254988  )
        51           C   tau(  51) = (   0.5981522   0.4849593   0.4519611  )
        52           C   tau(  52) = (   0.8569104   0.5163900   0.0416029  )
        53           C   tau(  53) = (   0.9248178   0.0994604   0.3833638  )
        54           C   tau(  54) = (   0.6639424   0.9010006   0.7933713  )
        55           C   tau(  55) = (   0.5588110   0.3950355   0.3866953  )
        56           C   tau(  56) = (   0.7984059   0.6050320   0.7961934  )
        57           H   tau(  57) = (   0.2290596   1.0009978   0.3640502  )
        58           H   tau(  58) = (   0.2505234   0.5016080   0.3691185  )
        59           H   tau(  59) = (  -0.0086584   0.5011092   0.7809458  )
        60           H   tau(  60) = (   0.3118554   0.6514319   0.4868937  )
[...]
        94           O   tau(  94) = (   0.3551690   0.6519036   0.7240468  )
        95           O   tau(  95) = (   0.3707656   0.1477170   0.3098797  )
        96           O   tau(  96) = (   0.1091506   0.8535652   0.7199135  )
        97           O   tau(  97) = (   0.4642788   0.3566669   0.3968154  )
        98           O   tau(  98) = (   0.2033039   0.6423280   0.8050417  )
        99           O   tau(  99) = (   0.0200847   0.1353504   0.3952413  )
       100           O   tau( 100) = (   0.2588616   0.8639860   0.8046490  )
       101           O   tau( 101) = (   0.6158110   0.3481839   0.3145586  )
       102           O   tau( 102) = (   0.8551690   0.6519036   0.7240468  )
       103           O   tau( 103) = (   0.8707656   0.1477170   0.3098797  )
       104           O   tau( 104) = (   0.6091506   0.8535652   0.7199135  )
       105           O   tau( 105) = (   0.9642788   0.3566669   0.3968154  )
       106           O   tau( 106) = (   0.7033039   0.6423280   0.8050417  )
       107           O   tau( 107) = (   0.5200847   0.1353504   0.3952413  )
       108           O   tau( 108) = (   0.7588616   0.8639860   0.8046490  )

     number of k points=     1  Marzari-Vanderbilt smearing, width (Ry)=  0.2000
                       cart. coord. in units 2pi/alat
[...]
     atom:   52    charge:    0.7930    magn:    0.0041    constr:    0.0000
     atom:   53    charge:    0.7766    magn:   -0.0014    constr:    0.0000
     atom:   54    charge:    0.8177    magn:   -0.0017    constr:    0.0000
     atom:   55    charge:    0.8008    magn:   -0.0016    constr:    0.0000
     atom:   56    charge:    0.7133    magn:   -0.0010    constr:    0.0000
     atom:   57    charge:    0.1588    magn:    0.0011    constr:    0.0000
     atom:   58    charge:    0.3972    magn:   -0.0003    constr:    0.0000
     atom:   59    charge:    0.1852    magn:    0.0009    constr:    0.0000
     atom:   60    charge:    0.4444    magn:   -0.0010    constr:    0.0000
[...]
     atom:   94    charge:    3.0254    magn:    0.0476    constr:    0.0000
     atom:   95    charge:    2.3857    magn:    0.0375    constr:    0.0000
     atom:   96    charge:    3.0402    magn:    0.0477    constr:    0.0000
     atom:   97    charge:    2.6424    magn:    0.0452    constr:    0.0000
     atom:   98    charge:    2.9997    magn:    0.0479    constr:    0.0000
     atom:   99    charge:    3.0831    magn:    0.0485    constr:    0.0000
     atom:  100    charge:    2.8627    magn:    0.0463    constr:    0.0000
     atom:  101    charge:    3.0465    magn:    0.0531    constr:    0.0000
     atom:  102    charge:    2.5275    magn:    0.0409    constr:    0.0000
     atom:  103    charge:    3.0421    magn:    0.0473    constr:    0.0000
     atom:  104    charge:    2.9912    magn:    0.0530    constr:    0.0000
     atom:  105    charge:    2.8847    magn:    0.0467    constr:    0.0000
     atom:  106    charge:    2.6334    magn:    0.0453    constr:    0.0000
     atom:  107    charge:    2.5762    magn:    0.0443    constr:    0.0000
     atom:  108    charge:    2.8030    magn:    0.0485    constr:    0.0000

     End of self-consistent calculation

 ------ SPIN UP ------------

[...]

 ------ SPIN DOWN ----------

          k = 0.0000 0.0000 0.0000 ( 91663 PWs)   bands (ev):

   -21.1488 -21.1425 -21.0768 -21.0611 -20.9743 -20.9690 -20.9326 -20.9174
   -18.1369 -18.1285 -18.1006 -18.0924 -18.0776 -18.0753 -18.0587 -18.0522
   -18.0333 -18.0261 -17.9938 -17.9745 -17.9563 -17.9480 -17.9268 -17.9147
   -15.5788 -15.5671 -15.4530 -15.4508 -15.4143 -15.4123 -15.3909 -15.3790
   -13.9762 -13.9576 -13.9294 -13.9240 -13.9196 -13.8943 -13.8299 -13.8153
   -12.6841 -12.6531 -12.5666 -12.5634 -12.5563 -12.4988 -12.4676 -12.4226
   -10.6103 -10.5445 -10.5209 -10.4816 -10.4717 -10.4356 -10.4125 -10.3967
    -9.6751  -9.6608  -9.5855  -9.5560  -9.5319  -9.5248  -9.4764  -9.4608
    -8.2260  -8.0769  -8.0219  -7.9895  -7.9512  -7.9283  -7.8880  -7.8025
    -6.9708  -6.6817  -6.6325  -6.5645  -6.5498  -6.5244  -6.5074  -6.4823
    -6.4627  -6.4209  -6.4067  -6.3295  -6.1920  -6.1776  -6.1551  -6.0803
    -5.6413  -5.6279  -5.5735  -5.5605  -5.5151  -5.4943  -5.4650  -5.3953
    -5.3410  -5.3239  -5.3190  -5.2510  -5.2424  -5.2250  -5.2012  -5.1770
    -5.1565  -5.0937  -5.0125  -5.0037  -4.9875  -4.9570  -4.9346  -4.9036
    -4.8735  -4.8666  -4.8401  -4.8114  -4.7542  -4.7152  -4.6659  -4.5437
    -4.5003  -4.4599  -4.4137  -4.3913  -4.3261  -4.3111  -4.2666  -4.2539
    -4.1306  -4.1129  -4.0765  -4.0491  -3.9967  -3.9509  -3.9418  -3.7357
    -3.3339  -3.1284  -3.1239  -3.0413  -3.0182  -2.9199  -2.8942  -2.8828
    -2.8596  -2.8189  -2.7924  -2.7413  -2.7147  -2.6914  -2.5675  -2.5472
    -2.4686  -2.4245  -2.4092  -2.3788  -2.3348  -2.2780  -2.2497  -2.2337
    -2.2281  -2.1362  -2.1339  -1.9719  -1.9472  -1.9003  -1.8378  -1.7877
    -1.7131  -1.6940  -1.5042  -1.4968  -1.4743  -1.4120  -1.3314  -1.3185
    -1.3107  -1.2832  -1.2390  -1.2193  -1.1872  -1.1092  -1.0630  -1.0336
    -0.9988  -0.9663  -0.9030  -0.8799  -0.8699  -0.8214  -0.8133  -0.7464
    -0.5445  -0.5296  -0.4870  -0.4241  -0.3949  -0.3430  -0.3097  -0.2642
    -0.2049  -0.1703  -0.1443  -0.0780  -0.0197   0.0027   0.0078   0.0373
     0.0783   0.0948   0.1406   0.1580   0.2047   0.2110   0.2558   0.2723
     0.2854   0.2932   0.3505   0.4654   1.7713   1.7895   1.8180   1.8523
     2.0701   2.1253   2.2270   2.2372   3.1531   3.2045   3.2153   3.2391
     3.2614   3.3646   3.3680   3.4138   4.1868   4.2301   4.2895   4.3563
     4.4163   4.4302   4.5382   4.5445   4.8495   5.0180   5.0605   5.1252
     5.4276   5.4578   5.4999   5.6494   5.6738   5.6840   5.7400   5.8238
     5.8288   5.9271   5.9517   5.9729   5.9905   6.1693   6.2054   6.3611
     6.5724   6.6335   6.7021   6.8284   6.8866   7.0910   7.2428   7.4463
     7.5146   7.6583

     the spin up/dw Fermi energies are     1.6654    1.3389 ev

!    total energy              =   -1891.26386331 Ry
     Harris-Foulkes estimate   =   -1891.26386331 Ry
     estimated scf accuracy    <          9.3E-09 Ry

     The total energy is the sum of the following terms:

     one-electron contribution =   -2270.61495345 Ry
     hartree contribution      =    1310.70800451 Ry
     xc contribution           =    -598.17661173 Ry
     ewald contribution        =    -335.50070321 Ry
     Dispersion Correction     =      -0.57305987 Ry
     smearing contrib. (-TS)   =       2.89346043 Ry

     total magnetization       =     8.00 Bohr mag/cell
     absolute magnetization    =     8.20 Bohr mag/cell

     convergence has been achieved in  10 iterations

     Forces acting on atoms (cartesian axes, Ry/au):

     atom    1 type  1   force =     0.00038332   -0.00076044   -0.00015789
     atom    2 type  1   force =     0.00040892    0.00032947   -0.00010288
     atom    3 type  1   force =     0.00038377   -0.00031775   -0.00036012
     atom    4 type  1   force =     0.00008583   -0.00012733   -0.00035294
     atom    5 type  1   force =    -0.00042993   -0.00037445   -0.00010006
     atom    6 type  1   force =     0.00018871    0.00001820   -0.00007315
     atom    7 type  1   force =     0.00049296   -0.00025804   -0.00086518
     atom    8 type  1   force =     0.00002773   -0.00000130   -0.00008578
     atom    9 type  2   force =    -0.00029714    0.00015427   -0.00003356
     atom   10 type  2   force =     0.00023376    0.00055127    0.00018387
     atom   11 type  2   force =    -0.00030277   -0.00039684    0.00027374
     atom   12 type  2   force =    -0.00013499    0.00001561    0.00021944
     atom   13 type  2   force =    -0.00042617   -0.00034892    0.00040111
     atom   14 type  2   force =    -0.00001628   -0.00003119    0.00036208
     atom   15 type  2   force =    -0.00015110    0.00021683    0.00039458
     atom   16 type  2   force =     0.00001730   -0.00050689    0.00044581
     atom   17 type  2   force =    -0.00011798   -0.00032542   -0.00028319
     atom   18 type  2   force =    -0.00016038   -0.00010597    0.00032417
     atom   19 type  2   force =     0.00000590   -0.00068860   -0.00027066
     atom   20 type  2   force =     0.00028801    0.00008056   -0.00042718
     atom   21 type  2   force =    -0.00044968   -0.00059107   -0.00004423
     atom   22 type  2   force =     0.00026896    0.00011189    0.00006783
     atom   23 type  2   force =    -0.00058228   -0.00051366   -0.00012557
     atom   24 type  2   force =    -0.00000770   -0.00006923    0.00009717
     atom   25 type  2   force =    -0.00009255   -0.00040677    0.00006987
     atom   26 type  2   force =     0.00034368   -0.00030024    0.00029584
     atom   27 type  2   force =     0.00012755    0.00004535   -0.00009036
     atom   28 type  2   force =    -0.00002251    0.00016442   -0.00002388
     atom   29 type  2   force =     0.00024935   -0.00027926   -0.00018282
     atom   30 type  2   force =    -0.00010944    0.00000096   -0.00008091
     atom   31 type  2   force =     0.00022979    0.00034908    0.00022986
     atom   32 type  2   force =    -0.00031589    0.00008007    0.00005944
     atom   33 type  2   force =     0.00045048   -0.00007798    0.00096872
     atom   34 type  2   force =     0.00044816   -0.00010711    0.00000477
     atom   35 type  2   force =    -0.00020813    0.00023321   -0.00011647
     atom   36 type  2   force =     0.00052243    0.00008990   -0.00018350
     atom   37 type  2   force =    -0.00026963    0.00002862   -0.00016267
     atom   38 type  2   force =    -0.00037974    0.00013960   -0.00002590
     atom   39 type  2   force =    -0.00018786   -0.00016990   -0.00014917
     atom   40 type  2   force =    -0.00027737    0.00021991    0.00006438
     atom   41 type  2   force =     0.00032487    0.00020325   -0.00020255
     atom   42 type  2   force =     0.00024288   -0.00017391   -0.00061066
     atom   43 type  2   force =    -0.00012667    0.00015244   -0.00028705
     atom   44 type  2   force =    -0.00003478    0.00013638   -0.00024039
     atom   45 type  2   force =     0.00033643    0.00026905    0.00061973
     atom   46 type  2   force =     0.00019658   -0.00010002    0.00009392
     atom   47 type  2   force =     0.00004702   -0.00005716    0.00003099
     atom   48 type  2   force =    -0.00027067   -0.00020349   -0.00020228
     atom   49 type  2   force =     0.00031375    0.00003482    0.00019082
     atom   50 type  2   force =     0.00022024    0.00021485   -0.00005759
     atom   51 type  2   force =    -0.00014189    0.00022590    0.00009265
     atom   52 type  2   force =     0.00051421   -0.00002781   -0.00012063
     atom   53 type  2   force =    -0.00006924    0.00010089   -0.00000180
     atom   54 type  2   force =    -0.00036252   -0.00018693   -0.00044321
     atom   55 type  2   force =    -0.00020602    0.00004113   -0.00012208
     atom   56 type  2   force =     0.00018823   -0.00008750   -0.00055262
     atom   57 type  3   force =     0.00024701    0.00074646   -0.00018574
     atom   58 type  3   force =    -0.00028077   -0.00017251    0.00019082
     atom   59 type  3   force =    -0.00008732    0.00020664   -0.00033348
     atom   60 type  3   force =     0.00008179    0.00014993    0.00001525
[...]
     atom   94 type  6   force =    -0.00072224    0.00022089   -0.00038309
     atom   95 type  6   force =    -0.00004505   -0.00036353    0.00013658
     atom   96 type  6   force =     0.00004557    0.00012414    0.00068737
     atom   97 type  6   force =     0.00053079    0.00000933    0.00048131
     atom   98 type  6   force =    -0.00034159    0.00007616    0.00023675
     atom   99 type  6   force =     0.00014581    0.00030633    0.00019048
     atom  100 type  6   force =     0.00034421    0.00059817    0.00030550
     atom  101 type  6   force =     0.00021220    0.00021248    0.00047476
     atom  102 type  6   force =     0.00052162   -0.00017390   -0.00002526
     atom  103 type  6   force =     0.00053704   -0.00015991   -0.00022883
     atom  104 type  6   force =    -0.00025439   -0.00041220   -0.00005568
     atom  105 type  6   force =    -0.00003339    0.00008915   -0.00025868
     atom  106 type  6   force =     0.00054524   -0.00043805    0.00045261
     atom  107 type  6   force =    -0.00005768    0.00013705   -0.00011760
     atom  108 type  6   force =    -0.00036571    0.00028047    0.00020036

     Total force =     0.005714     Total SCF correction =     0.000246

     bfgs converged in  98 scf cycles and  96 bfgs steps
     (criteria: energy <  1.0E-04 Ry, force <  1.0E-03 Ry/Bohr)

     End of BFGS Geometry Optimization

     Final energy   =   -1891.2638633088 Ry
Begin final coordinates

ATOMIC_POSITIONS (crystal)
Br            0.5869569534       -0.0148293717        0.6209805161
Br            0.3177554026        0.9367045927        0.2195908558
Br            0.9368978951        0.4337714919        0.7226158613
Br            0.2007647477        0.5869583492        0.2316261011
Br            0.0484341831        0.0849353991        0.7385484866
Br            0.4402268058        0.9961947948        0.9152484700
Br            0.8072925673        0.4937610119        0.4254690758
Br            0.6630825844        0.4897008631        0.1258924970
C             0.2629299651        1.0000206188        0.5421904666
C             0.0297312314        0.0084987415        0.0375231388
C             0.3717615602        0.0257353322        0.5400089739
C             0.1314387208        0.9637029220        0.0550642441
C             0.4415221153        0.9574718757        0.6096817333
C             0.1949615014        0.0050646152        0.1583845828
C             0.2152750617        0.5120601181        0.5362149583
C             0.4260856147        0.4470252982       -0.0030851795
C             0.2451934958        0.6027738774        0.6067280141
C             0.4629448359        0.3657390061        0.0801703160
C             0.2282751274        0.9130703100        0.6163476371
C            -0.0008428690        0.0966865500        0.1105841481
C             0.4024834349        0.8695096679        0.6804354313
C             0.1614199075        0.0958692713        0.2272606564
C             0.0877497308        0.5977800980        0.7248182008
C             0.3415774790        0.4129102463        0.2383280602
C             0.0550312200        0.5046144962        0.6585091356
C             0.3029651709        0.4977286737        0.1606982302
C             0.1162316287        0.4636054494        0.5561473335
C             0.3460225345        0.5164466297        0.0372310844
C             0.4134480880        0.1189055502        0.4693960519
C             0.1702028270        0.8818061430        0.9658422182
C             0.0778189523        0.3783446293        0.4692238305
C             0.3068917797        0.6037324364        0.9529636693
C             0.8220309262        0.9414696082        0.4965067440
C             0.5371260016        0.0384926590        0.0422576353
C             0.9024961111        0.0114167565        0.5389561551
C             0.6414132535        0.9971329648        0.0581810282
C             0.9452451439        0.9949877592        0.6653443241
C             0.7030810232        0.0420157823        0.1597770526
C             0.7110737613        0.5371597047        0.5475949201
C             0.9849947232        0.4948783492        0.0471718410
C             0.7495800732        0.6169288932        0.6326228013
C             1.0194509280        0.4066050896        0.1210506305
C             0.7845330152        0.8620216171        0.5801492729
C             0.4986259752        0.1178979599        0.1259392006
C             0.9056111724        0.9120654438        0.7432758604
C             0.6604989431        0.1212156610        0.2403953077
C             0.5875085849        0.6210682977        0.7385789009
C             0.8461421434        0.3688327628        0.1852033261
C             0.5450603269        0.5412940828        0.6564910347
C             0.8074171045        0.4581526517        0.1149781036
C             0.6069223405        0.4959125686        0.5587247656
C             0.8769209863        0.5241000499        0.0452830585
C             0.9417820726        0.0973330934        0.4545901603
C             0.6847598232        0.9110136857        0.9756861059
C             0.5641613291        0.4090698129        0.4751362689
C             0.8360206594        0.6186041102        0.9745352753
H             0.2031591603        1.0484010604        0.4916197123
H             0.2711659605        0.4792999887        0.4679018069
H             0.0440407671        0.5418762370        0.9964001545
H             0.3212997653        0.6424668468        0.5926230745
[...]
O             0.3636452121        0.6473786280        0.8653871243
O             0.3591654928        0.1723362856        0.3846168430
O             0.1126295657        0.8413128391        0.8733836054
O             0.4660961664        0.3792294289        0.4779846148
O             0.2116875712        0.6403481985        0.9629755146
O             0.0371916039        0.1338003323        0.4676487730
O             0.2674510422        0.8477785673        0.9705334915
O             0.6213193278        0.3564647075        0.3942779346
O             0.8897132648        0.6710552975        0.8912125118
O             0.8844045303        0.1406520093        0.3641678694
O             0.6274238757        0.8576313180        0.8927549770
O             0.9815086288        0.3420031332        0.4731878863
O             0.7402127482        0.6536551607        0.9899700415
O             0.5103574587        0.1516743015        0.4865053022
O             0.7833085411        0.8825760218        0.9818118799
End final coordinates

     Writing output data file ./QE_relaxation_results/pbesol_relax/NiPyC2_relax_sc211_meta_functionalized_Br_pbesol_relax.save/

     General routines

     Parallel routines

   This run was terminated on:  22:38:35  22Jun2020

   JOB DONE.
QE finished Mon Jun 22 22:38:35 PDT 2020