     Program PWSCF v.6.5 starts on 25Jun2020 at 12:13: 0

     K-points division:     npool     =       2
     R & G space division:  proc/nbgrp/npool/nimage =      16
     Reading input from QE_input_scripts/pw.NiPyC2_relax_sc211_meta_functionalized_C-N_pbesol_relax.in
Warning: card &CELL ignored
Warning: card    CELL_DYNAMICS = 'BFGS' ignored
Warning: card    CELL_DOFREE = 'XYZ' ignored
Warning: card / ignored

     Current dimensions of program PWSCF are:
     Max number of different atomic species (ntypx) = 10
     Max number of k-points (npk) =  40000
     Max angular momentum in pseudopotentials (lmaxx) =  3

     Parameters for Dispersion (Grimme-D2) Correction:
       atom      VdW radius       C_6

        C          2.744         60.710
        H          1.892          4.857
        N          2.640         42.670
        Ni         2.952        374.666
        O          2.536         24.284

     gamma-point specific algorithms are used

     Subspace diagonalization in iterative solution of the eigenvalue problem:
     a serial algorithm will be used

     Found symmetry operation: I + ( -0.5000  0.0000  0.0000)
     This is a supercell, fractional translations are disabled

     bravais-lattice index     =            0
     lattice parameter (alat)  =      23.6322  a.u.
     unit-cell volume          =   10858.6228 (a.u.)^3
     number of atoms/cell      =          116
     number of atomic types    =            5
     number of electrons       =       464.00 (up: 236.00, down: 228.00)
     number of Kohn-Sham states=          283
     kinetic-energy cutoff     =     100.0000  Ry
     charge density cutoff     =     400.0000  Ry
     convergence threshold     =      1.0E-06
     mixing beta               =       0.7000
     number of iterations used =            8  local-TF  mixing
     Exchange-correlation= PBESOL
                           (   1   4  10   8   0   0   0)
     nstep                     =          200

     celldm(1)=  23.632159  celldm(2)=   0.000000  celldm(3)=   0.000000
     celldm(4)=   0.000000  celldm(5)=   0.000000  celldm(6)=   0.000000

     crystal axes: (cart. coord. in units of alat)
               a(1) = (   1.000000   0.000000   0.000000 )
               a(2) = (   0.000000   1.001423   0.000000 )
               a(3) = (  -0.018199   0.000000   0.821574 )

     reciprocal axes: (cart. coord. in units 2 pi/alat)
               b(1) = (  1.000000  0.000000  0.022152 )
               b(2) = (  0.000000  0.998579  0.000000 )
               b(3) = (  0.000000  0.000000  1.217175 )

     PseudoPot. # 1 for C  read from file:
     ./pseudo/C.pbesol-nc.UPF
     MD5 check sum: ce26087537ded160c8d400e183a8bf42
     Pseudo is Norm-conserving, Zval =  4.0
     Generated using "atomic" code by A. Dal Corso v.6.5
     Using radial grid of 1073 points,  1 beta functions with:
                l(1) =   1

     PseudoPot. # 2 for H  read from file:
     ./pseudo/H.pbesol-n-nc.UPF
     MD5 check sum: 7995ef24074557c85b430109caaacc09
     Pseudo is Norm-conserving, Zval =  1.0
     Generated using "atomic" code by A. Dal Corso v.6.5
     Using radial grid of  929 points,  0 beta functions with:

     PseudoPot. # 3 for N  read from file:
     ./pseudo/N.pbesol-nc.UPF
     MD5 check sum: e18cc5e4b8a5600c1a19b30c2cab1ca0
     Pseudo is Norm-conserving, Zval =  5.0
     Generated using "atomic" code by A. Dal Corso v.6.5
     Using radial grid of 1085 points,  1 beta functions with:
                l(1) =   1

     PseudoPot. # 4 for Ni read from file:
     ./pseudo/Ni.pbesol-n-nc.UPF
     MD5 check sum: 623411631e0c2eb7c0b2b9815547d2d9
     Pseudo is Norm-conserving + core correction, Zval = 10.0
     Generated using "atomic" code by A. Dal Corso v.6.5
     Using radial grid of 1195 points,  2 beta functions with:
                l(1) =   1
                l(2) =   2

     PseudoPot. # 5 for O  read from file:
     ./pseudo/O.pbesol-nc.UPF
     MD5 check sum: 73d10e7e91dbfcbe8a7e362101007f84
     Pseudo is Norm-conserving, Zval =  6.0
     Generated using "atomic" code by A. Dal Corso v.6.5
     Using radial grid of 1095 points,  1 beta functions with:
                l(1) =   1

     atomic species   valence    mass     pseudopotential
        C              4.00    12.01070     C ( 1.00)
        H              1.00     1.00794     H ( 1.00)
        N              5.00    14.00670     N ( 1.00)
        Ni            10.00    58.69340     Ni( 1.00)
        O              6.00    15.99940     O ( 1.00)

     Starting magnetic structure
     atomic species   magnetization
        C            0.000
        H            0.000
        N            0.000
        Ni           0.250
        O            0.000

     No symmetry found

   Cartesian axes

     site n.     atom                  positions (alat units)
         1           C   tau(   1) = (   0.2787122   0.9714307   0.4288486  )
         2           C   tau(   2) = (   0.0379730   0.0311503   0.0183277  )
         3           C   tau(   3) = (   0.3806882   0.0117868   0.4489838  )
         4           C   tau(   4) = (   0.1394042   0.9891499   0.0379124  )
         5           C   tau(   5) = (   0.4400787   0.9715829   0.5343281  )
         6           C   tau(   6) = (   0.1997920   0.0283934   0.1231482  )
         7           C   tau(   7) = (   0.1986011   0.5304580   0.4324635  )
         8           C   tau(   8) = (   0.4580372   0.4720800   0.0229252  )
         9           C   tau(   9) = (   0.2341003   0.6142040   0.4982314  )
        10           C   tau(  10) = (   0.4948422   0.3892302   0.0892369  )
        11           C   tau(  11) = (   0.2384981   0.8904717   0.4955761  )
        12           C   tau(  12) = (  -0.0008282   0.1123917   0.0856467  )
        13           C   tau(  13) = (   0.3947360   0.8906489   0.5977380  )
        14           C   tau(  14) = (   0.1557890   0.1097029   0.1871645  )
        15           C   tau(  15) = (   0.0756247   0.6098498   0.5975737  )
        16           C   tau(  16) = (   0.3367152   0.3921904   0.1884642  )
        17           C   tau(  17) = (   0.0350715   0.5258264   0.5351012  )
        18           C   tau(  18) = (   0.2948780   0.4753867   0.1254988  )
        19           C   tau(  19) = (   0.0981522   0.4849593   0.4519611  )
        20           C   tau(  20) = (   0.3569104   0.5163900   0.0416029  )
        21           C   tau(  21) = (   0.4248178   0.0994604   0.3833638  )
        22           C   tau(  22) = (   0.1639424   0.9010006   0.7933713  )
        23           C   tau(  23) = (   0.0588120   0.3950355   0.3866953  )
        24           C   tau(  24) = (   0.2984059   0.6050320   0.7961934  )
        25           C   tau(  25) = (   0.7787122   0.9714307   0.4288486  )
        26           C   tau(  26) = (   0.5379730   0.0311503   0.0183277  )
        27           C   tau(  27) = (   0.8806882   0.0117868   0.4489838  )
        28           C   tau(  28) = (   0.6394042   0.9891499   0.0379124  )
        29           C   tau(  29) = (   0.9400787   0.9715829   0.5343281  )
        30           C   tau(  30) = (   0.6997920   0.0283934   0.1231482  )
        31           C   tau(  31) = (   0.6986021   0.5304580   0.4324635  )
        32           C   tau(  32) = (   0.9580382   0.4720800   0.0229252  )
        33           C   tau(  33) = (   0.7341003   0.6142040   0.4982314  )
        34           C   tau(  34) = (   0.9948422   0.3892302   0.0892369  )
        35           C   tau(  35) = (   0.7384981   0.8904717   0.4955761  )
        36           C   tau(  36) = (   0.4991718   0.1123917   0.0856467  )
        37           C   tau(  37) = (   0.8947360   0.8906489   0.5977380  )
        38           C   tau(  38) = (   0.6557880   0.1097029   0.1871645  )
        39           C   tau(  39) = (   0.5756247   0.6098498   0.5975737  )
        40           C   tau(  40) = (   0.8367152   0.3921904   0.1884642  )
        41           C   tau(  41) = (   0.5350715   0.5258264   0.5351012  )
        42           C   tau(  42) = (   0.7948780   0.4753867   0.1254988  )
        43           C   tau(  43) = (   0.5981522   0.4849593   0.4519611  )
        44           C   tau(  44) = (   0.8569104   0.5163900   0.0416029  )
        45           C   tau(  45) = (   0.9248178   0.0994604   0.3833638  )
        46           C   tau(  46) = (   0.6639424   0.9010006   0.7933713  )
        47           C   tau(  47) = (   0.5588110   0.3950355   0.3866953  )
        48           C   tau(  48) = (   0.7984059   0.6050320   0.7961934  )
        49           C   tau(  49) = (   0.5464825   0.0063120   0.5609265  )
        50           C   tau(  50) = (   0.3058921   0.9922874   0.1490114  )
        51           C   tau(  51) = (   0.9297415   0.4857745   0.5601115  )
        52           C   tau(  52) = (   0.5094807   0.5076495   0.7592274  )
        53           C   tau(  53) = (   0.0464825   0.0063120   0.5609265  )
        54           C   tau(  54) = (   0.8058921   0.9922884   0.1490122  )
        55           C   tau(  55) = (   0.4297415   0.4857745   0.5601115  )
        56           C   tau(  56) = (   0.0094817   0.5076495   0.7592283  )
        57           H   tau(  57) = (   0.2290596   1.0009978   0.3640502  )
        58           H   tau(  58) = (   0.4693669   0.0026958   0.7751545  )
        59           H   tau(  59) = (   0.2505234   0.5016080   0.3691185  )
        60           H   tau(  60) = (   0.3118554   0.6514319   0.4868937  )
[...]
       102           O   tau( 102) = (   0.3551690   0.6519036   0.7240468  )
       103           O   tau( 103) = (   0.3707656   0.1477170   0.3098797  )
       104           O   tau( 104) = (   0.1091506   0.8535652   0.7199135  )
       105           O   tau( 105) = (   0.4642788   0.3566669   0.3968154  )
       106           O   tau( 106) = (   0.2033039   0.6423280   0.8050417  )
       107           O   tau( 107) = (   0.0200847   0.1353504   0.3952413  )
       108           O   tau( 108) = (   0.2588616   0.8639860   0.8046490  )
       109           O   tau( 109) = (   0.6158110   0.3481839   0.3145586  )
       110           O   tau( 110) = (   0.8551690   0.6519036   0.7240468  )
       111           O   tau( 111) = (   0.8707656   0.1477170   0.3098797  )
       112           O   tau( 112) = (   0.6091506   0.8535652   0.7199135  )
       113           O   tau( 113) = (   0.9642788   0.3566669   0.3968154  )
       114           O   tau( 114) = (   0.7033039   0.6423280   0.8050417  )
       115           O   tau( 115) = (   0.5200847   0.1353504   0.3952413  )
       116           O   tau( 116) = (   0.7588616   0.8639860   0.8046490  )

     number of k points=     1  Marzari-Vanderbilt smearing, width (Ry)=  0.2000
                       cart. coord. in units 2pi/alat
        k(    1) = (   0.0000000   0.0000000   0.0000000), wk =   1.0000000

     Check: negative core charge=   -0.000145

     Initial potential from superposition of free atoms

     starting charge  463.99639, renormalised to  464.00000
     Starting wfcs are  412 randomized atomic wfcs

     Self-consistent Calculation

     iteration #  1     ecut=   100.00 Ry     beta= 0.70
[...]
     atom:   53    charge:    0.8529    magn:    0.0045    constr:    0.0000
     atom:   54    charge:    0.8481    magn:    0.0044    constr:    0.0000
     atom:   55    charge:    0.8476    magn:    0.0029    constr:    0.0000
     atom:   56    charge:    0.7998    magn:    0.0022    constr:    0.0000
     atom:   57    charge:    0.4836    magn:   -0.0013    constr:    0.0000
     atom:   58    charge:    0.5018    magn:   -0.0013    constr:    0.0000
     atom:   59    charge:    0.4939    magn:   -0.0017    constr:    0.0000
     atom:   60    charge:    0.4695    magn:   -0.0004    constr:    0.0000
[...]
     atom:  102    charge:    3.1862    magn:    0.0554    constr:    0.0000
     atom:  103    charge:    3.1964    magn:    0.0570    constr:    0.0000
     atom:  104    charge:    3.1222    magn:    0.0570    constr:    0.0000
     atom:  105    charge:    3.1724    magn:    0.0526    constr:    0.0000
     atom:  106    charge:    2.8817    magn:    0.0531    constr:    0.0000
     atom:  107    charge:    3.2139    magn:    0.0565    constr:    0.0000
     atom:  108    charge:    3.1573    magn:    0.0574    constr:    0.0000
     atom:  109    charge:    3.2375    magn:    0.0524    constr:    0.0000
     atom:  110    charge:    3.1861    magn:    0.0554    constr:    0.0000
     atom:  111    charge:    3.1964    magn:    0.0570    constr:    0.0000
     atom:  112    charge:    3.1222    magn:    0.0570    constr:    0.0000
     atom:  113    charge:    3.1723    magn:    0.0526    constr:    0.0000
     atom:  114    charge:    2.8815    magn:    0.0531    constr:    0.0000
     atom:  115    charge:    3.2139    magn:    0.0565    constr:    0.0000
     atom:  116    charge:    3.1574    magn:    0.0574    constr:    0.0000

     End of self-consistent calculation

 ------ SPIN UP ------------

[...]

 ------ SPIN DOWN ----------

          k = 0.0000 0.0000 0.0000 ( 91663 PWs)   bands (ev):

   -21.8095 -21.8069 -21.7761 -21.7694 -21.6606 -21.6603 -21.6227 -21.6206
   -19.4888 -19.4499 -18.7956 -18.7918 -18.7346 -18.7198 -18.7026 -18.7004
   -18.6982 -18.6877 -18.6713 -18.6686 -18.5820 -18.5608 -18.5370 -18.5239
   -18.0821 -18.0580 -16.4363 -16.4133 -16.3562 -16.3537 -16.3382 -16.3113
   -15.4668 -15.4576 -15.2014 -15.1787 -14.9950 -14.9794 -14.9768 -14.9590
   -14.3285 -14.3280 -13.8796 -13.8786 -13.7869 -13.7343 -13.7171 -13.6937
   -11.9672 -11.9645 -11.4838 -11.4643 -11.3775 -11.3608 -11.3328 -11.3116
   -11.2802 -11.2784 -11.0564 -11.0066 -10.8329 -10.8111 -10.7919 -10.7745
    -9.6524  -9.6258  -8.9638  -8.9056  -8.8571  -8.8133  -8.7822  -8.7723
    -8.4457  -8.4206  -8.0771  -8.0067  -7.9025  -7.7604  -7.7462  -7.7077
    -7.6829  -7.6469  -7.3729  -7.3662  -7.2853  -7.1810  -7.1573  -7.1070
    -7.0601  -7.0367  -7.0210  -7.0171  -6.8286  -6.8022  -6.6229  -6.5560
    -6.5109  -6.3607  -6.2380  -6.2078  -6.1693  -6.1131  -6.0857  -6.0288
    -6.0123  -5.9514  -5.9148  -5.8849  -5.8596  -5.7888  -5.7703  -5.7431
    -5.7209  -5.6604  -5.6491  -5.5751  -5.5681  -5.5276  -5.5028  -5.4549
    -5.4124  -5.3725  -5.3147  -5.2066  -5.1999  -5.1595  -5.1204  -5.0032
    -4.9825  -4.9359  -4.8956  -4.7677  -4.7435  -4.7399  -4.7080  -4.4260
    -4.3760  -4.3652  -4.2487  -4.2104  -4.0232  -3.9830  -3.9072  -3.8296
    -3.7638  -3.7458  -3.7337  -3.6929  -3.6800  -3.6106  -3.5593  -3.5047
    -3.4754  -3.4197  -3.3146  -3.2919  -3.2109  -3.1774  -3.1354  -3.0597
    -2.9999  -2.9677  -2.9404  -2.9276  -2.8760  -2.8446  -2.8187  -2.7453
    -2.7206  -2.5661  -2.4991  -2.4938  -2.4127  -2.3910  -2.3398  -2.3100
    -2.2860  -2.2765  -2.2357  -2.2104  -2.1782  -2.1557  -2.1477  -2.1176
    -2.0254  -2.0231  -1.9848  -1.8759  -1.8635  -1.8080  -1.7723  -1.7466
    -1.7347  -1.6990  -1.6863  -1.6140  -1.6061  -1.5652  -1.5445  -1.4998
    -1.4448  -1.4092  -1.3457  -1.3257  -1.2532  -1.2432  -1.2250  -1.1770
    -1.1722  -1.1564  -1.1504  -1.0397  -0.8586  -0.7671  -0.7120  -0.6294
    -0.6221  -0.6145  -0.5944  -0.5764  -0.5419  -0.4668  -0.4583  -0.4456
    -0.3428  -0.2694   0.5059   0.9885   1.1019   1.1541   1.1668   1.2338
     1.4125   1.4352   1.4945   1.5306   2.0208   2.2523   2.4625   2.5296
     2.5492   2.7204   2.7554   2.8075   3.0023   3.1021   3.3782   3.4725
     3.5164   3.5318   3.5798   3.5805   4.6032   4.7175   4.8478   5.0447
     5.0545   5.1640   5.1816   5.1839   5.2895   5.3051   5.3740   5.4065
     5.5383   5.5811   5.6079   5.7071   5.7413   5.7440   5.7812   5.8838
     6.0583   6.0631   6.2187   6.2322   6.3178   6.3921   6.4885   6.4986
     6.5371   6.5517   6.5751

     the spin up/dw Fermi energies are     0.9329    0.6029 ev

!    total energy              =   -1861.93777310 Ry
     Harris-Foulkes estimate   =   -1861.93777310 Ry
     estimated scf accuracy    <          6.9E-09 Ry

     The total energy is the sum of the following terms:

     one-electron contribution =   -2486.84637068 Ry
     hartree contribution      =    1414.89157788 Ry
     xc contribution           =    -553.87876304 Ry
     ewald contribution        =    -238.74346786 Ry
     Dispersion Correction     =      -0.56082256 Ry
     smearing contrib. (-TS)   =       3.20007316 Ry

     total magnetization       =     8.00 Bohr mag/cell
     absolute magnetization    =     8.20 Bohr mag/cell

     convergence has been achieved in  13 iterations

     Forces acting on atoms (cartesian axes, Ry/au):

     atom    1 type  1   force =    -0.00027877    0.00019609   -0.00018136
     atom    2 type  1   force =    -0.00001435   -0.00020138   -0.00029931
     atom    3 type  1   force =    -0.00001859    0.00000838    0.00015480
     atom    4 type  1   force =    -0.00013799    0.00008065   -0.00012817
     atom    5 type  1   force =    -0.00003159    0.00011633   -0.00006901
     atom    6 type  1   force =    -0.00014976   -0.00024699   -0.00011163
     atom    7 type  1   force =    -0.00016287    0.00071648   -0.00028106
     atom    8 type  1   force =     0.00026543   -0.00000881    0.00019849
     atom    9 type  1   force =     0.00056384   -0.00095420    0.00054945
     atom   10 type  1   force =    -0.00032071   -0.00027437    0.00028368
     atom   11 type  1   force =     0.00022618    0.00018729    0.00011394
     atom   12 type  1   force =     0.00014283    0.00015875    0.00025808
     atom   13 type  1   force =     0.00003664    0.00005090    0.00005281
     atom   14 type  1   force =    -0.00015998    0.00012490    0.00037967
     atom   15 type  1   force =    -0.00029745    0.00004017   -0.00039593
     atom   16 type  1   force =    -0.00000785    0.00006398    0.00048359
     atom   17 type  1   force =     0.00054493   -0.00069691    0.00051572
     atom   18 type  1   force =     0.00018829    0.00055172    0.00005763
     atom   19 type  1   force =    -0.00039327   -0.00020971   -0.00019121
     atom   20 type  1   force =     0.00039768   -0.00018350    0.00014980
     atom   21 type  1   force =    -0.00003385    0.00010868    0.00017802
     atom   22 type  1   force =    -0.00007209   -0.00031282    0.00004094
     atom   23 type  1   force =     0.00044523   -0.00033238   -0.00000483
     atom   24 type  1   force =     0.00035277   -0.00041952   -0.00037721
     atom   25 type  1   force =    -0.00026555    0.00019834   -0.00017797
     atom   26 type  1   force =    -0.00001288   -0.00020881   -0.00029700
     atom   27 type  1   force =    -0.00004204   -0.00000481    0.00014362
     atom   28 type  1   force =    -0.00015896    0.00008118   -0.00013839
     atom   29 type  1   force =    -0.00019770    0.00005565   -0.00011904
     atom   30 type  1   force =    -0.00016227   -0.00022048   -0.00014208
     atom   31 type  1   force =    -0.00036019    0.00069379   -0.00015630
     atom   32 type  1   force =     0.00027480   -0.00004076    0.00024946
     atom   33 type  1   force =     0.00073924   -0.00095847    0.00038053
     atom   34 type  1   force =    -0.00037734   -0.00028523    0.00029775
     atom   35 type  1   force =     0.00023873    0.00019307    0.00011220
     atom   36 type  1   force =     0.00012899    0.00013771    0.00026279
     atom   37 type  1   force =     0.00000701    0.00002359    0.00005683
     atom   38 type  1   force =    -0.00015979    0.00012558    0.00039877
     atom   39 type  1   force =    -0.00027582    0.00008646   -0.00034555
     atom   40 type  1   force =    -0.00001978    0.00004885    0.00047982
     atom   41 type  1   force =     0.00056310   -0.00063543    0.00058575
     atom   42 type  1   force =     0.00018642    0.00054995    0.00005629
     atom   43 type  1   force =    -0.00024106   -0.00014375   -0.00024068
     atom   44 type  1   force =     0.00038990   -0.00015591    0.00014239
     atom   45 type  1   force =    -0.00002635    0.00012996    0.00016458
     atom   46 type  1   force =    -0.00006720   -0.00030265    0.00004089
     atom   47 type  1   force =     0.00041073   -0.00035173    0.00002229
     atom   48 type  1   force =     0.00037021   -0.00043960   -0.00034443
     atom   49 type  1   force =    -0.00069534   -0.00015074   -0.00044663
     atom   50 type  1   force =    -0.00027639   -0.00004629    0.00008429
     atom   51 type  1   force =     0.00048948   -0.00015471   -0.00018232
     atom   52 type  1   force =    -0.00030105    0.00018074    0.00041511
     atom   53 type  1   force =     0.00026702    0.00018129   -0.00010940
     atom   54 type  1   force =    -0.00009176   -0.00011339    0.00019283
     atom   55 type  1   force =     0.00018929   -0.00029208   -0.00008218
     atom   56 type  1   force =    -0.00007789    0.00039174    0.00006231
     atom   57 type  2   force =     0.00007141   -0.00003304    0.00016242
     atom   58 type  2   force =    -0.00020613   -0.00019967    0.00019722
     atom   59 type  2   force =     0.00026774    0.00040983    0.00079305
     atom   60 type  2   force =     0.00027367    0.00081820    0.00039011
[...]
     atom  102 type  5   force =     0.00004378    0.00017151   -0.00051912
     atom  103 type  5   force =     0.00003117    0.00009149   -0.00033708
     atom  104 type  5   force =    -0.00052463   -0.00047080   -0.00022450
     atom  105 type  5   force =     0.00004386   -0.00018289    0.00012943
     atom  106 type  5   force =     0.00024722    0.00010639   -0.00015401
     atom  107 type  5   force =    -0.00047809    0.00039145    0.00018499
     atom  108 type  5   force =    -0.00032932   -0.00011912   -0.00037696
     atom  109 type  5   force =    -0.00043128    0.00004693   -0.00001171
     atom  110 type  5   force =     0.00003765    0.00016907   -0.00052816
     atom  111 type  5   force =     0.00003768    0.00008166   -0.00032509
     atom  112 type  5   force =    -0.00052758   -0.00048367   -0.00022927
     atom  113 type  5   force =    -0.00000499   -0.00018925    0.00015955
     atom  114 type  5   force =     0.00023675    0.00009862   -0.00016187
     atom  115 type  5   force =    -0.00046241    0.00040266    0.00017771
     atom  116 type  5   force =    -0.00033284   -0.00011212   -0.00037045

     Total force =     0.006068     Total SCF correction =     0.000176

     bfgs converged in  47 scf cycles and  46 bfgs steps
     (criteria: energy <  1.0E-04 Ry, force <  1.0E-03 Ry/Bohr)

     End of BFGS Geometry Optimization

     Final energy   =   -1861.9377730962 Ry
Begin final coordinates

ATOMIC_POSITIONS (crystal)
C             0.2881083263        0.9692998592        0.5225654363
C             0.0377316789        0.0279388143        0.0218003650
C             0.3883604427        0.0144269295        0.5464534900
C             0.1381134341        0.9827728590        0.0446735293
C             0.4504134790        0.9740547270        0.6524422555
C             0.2002911900        0.0223033481        0.1510828898
C             0.2081233451        0.5306868698        0.5238443860
C             0.4642519261        0.4754274519        0.0364497586
C             0.2420109623        0.6154424106        0.6071285648
C             0.5002793390        0.3879958251        0.1132172848
C             0.2519200794        0.8861410861        0.6023588845
C             0.0013509021        0.1099778220        0.1033159958
C             0.4080761283        0.8903990566        0.7294279445
C             0.1579868163        0.1050704572        0.2295669325
C             0.0857140457        0.6026131377        0.7349912646
C             0.3405423548        0.3880463378        0.2259177812
C             0.0444944755        0.5176778211        0.6413217424
C             0.3001487967        0.4743861509        0.1528326112
C             0.1093985711        0.4818881092        0.5415836438
C             0.3620455951        0.5208725176        0.0571291023
C             0.4299047342        0.1013801428        0.4661186379
C             0.1800581100        0.8963210570        0.9633857805
C             0.0712724541        0.3921032453        0.4613217033
C             0.3233828692        0.6114218809        0.9780179642
C             0.7881084587        0.9693004483        0.5225663902
C             0.5377332857        0.0279407326        0.0218002523
C             0.8883607625        0.0144280793        0.5464538229
C             0.6381139015        0.9827720352        0.0446742257
C             0.9504157162        0.9740554303        0.6524421894
C             0.7002902567        0.0223005849        0.1510843751
C             0.7081252357        0.5306867606        0.5238430611
C             0.9642503244        0.4754261626        0.0364526694
C             0.7420077672        0.6154407055        0.6071349466
C             1.0002819002        0.3879979756        0.1132228324
C             0.7519194005        0.8861411881        0.6023586638
C             0.5013533204        0.1099805194        0.1033149954
C             0.9080767398        0.8903999363        0.7294277964
C             0.6579872053        0.1050700380        0.2295665109
C             0.5857159394        0.6026060114        0.7349881598
C             0.8405415139        0.3880475200        0.2259215172
C             0.5444930828        0.5176756865        0.6413143290
C             0.8001459238        0.4743870395        0.1528343759
C             0.6093944907        0.4818852545        0.5415799688
C             0.8620427691        0.5208700153        0.0571280095
C             0.9299051345        0.1013795264        0.4661185539
C             0.6800581184        0.8963198655        0.9633863600
C             0.5712698732        0.3921036991        0.4613168491
C             0.8233821358        0.6114227435        0.9780168657
C             0.5514588377        0.0143031064        0.6884740034
C             0.3013168489        0.9815388827        0.1862868845
C             0.9446328938        0.4759035630        0.6694165188
C             0.5281507371        0.5175159153        0.9403779510
C             0.0514495101        0.0142994102        0.6884686098
C             0.8013169629        0.9815392145        0.1862765572
C             0.4446323864        0.4759108821        0.6694100825
C             0.0281564626        0.5175099703        0.9403922104
H             0.2363369058        0.9975117790        0.4439564187
H             0.4859446558        0.0008477883        0.9426564903
H             0.2606605310        0.5043284398        0.4475842302
H             0.3176634979        0.6551779652        0.5897361078
[...]
O             0.3778730417        0.6542226988        0.8869813256
O             0.3729701992        0.1534465501        0.3817445710
O             0.1224823868        0.8417772903        0.8819936103
O             0.4764988948        0.3545370369        0.4745159082
O             0.2308868704        0.6531026217        0.9932118883
O             0.0275996179        0.1324666012        0.4753274814
O             0.2784436402        0.8680037844        0.9700613587
O             0.6270001176        0.3450002436        0.3752093475
O             0.8778742481        0.6542256079        0.8869839016
O             0.8729705804        0.1534468257        0.3817438007
O             0.6224827229        0.8417786163        0.8819929667
O             0.9765025737        0.3545381898        0.4745165990
O             0.7308886505        0.6531066177        0.9932161271
O             0.5275985599        0.1324665780        0.4753286655
O             0.7784440574        0.8680021699        0.9700613617
End final coordinates

     Writing output data file /nfs/hpc/share/gantzlen/NiPyC2_relax_sc211_meta_functionalized_C-N_pbesol_relax.save/

     General routines

     Parallel routines

   This run was terminated on:   2:22:48  26Jun2020

   JOB DONE.
QE finished Fri Jun 26 02:22:48 PDT 2020