     Program PWSCF v.6.5 starts on  1Aug2020 at 12: 9:54

     K-points division:     npool     =       2
     R & G space division:  proc/nbgrp/npool/nimage =       8
     Reading input from ./QE_input_scripts/pw.NiPyC2_relax_sc211_ortho_functionalized_OH_pbesol_relax.in
Warning: card &CELL ignored
Warning: card    CELL_DYNAMICS = 'BFGS' ignored
Warning: card    CELL_DOFREE = 'XYZ' ignored
Warning: card / ignored

     Current dimensions of program PWSCF are:
     Max number of different atomic species (ntypx) = 10
     Max number of k-points (npk) =  40000
     Max angular momentum in pseudopotentials (lmaxx) =  3

     Parameters for Dispersion (Grimme-D2) Correction:
       atom      VdW radius       C_6

        C          2.744         60.710
        H          1.892          4.857
        N          2.640         42.670
        Ni         2.952        374.666
        O          2.536         24.284

     gamma-point specific algorithms are used

     Subspace diagonalization in iterative solution of the eigenvalue problem:
     a serial algorithm will be used

     bravais-lattice index     =            0
     lattice parameter (alat)  =      23.6322  a.u.
     unit-cell volume          =   10858.6228 (a.u.)^3
     number of atoms/cell      =          116
     number of atomic types    =            5
     number of electrons       =       448.00 (up: 228.00, down: 220.00)
     number of Kohn-Sham states=          274
     kinetic-energy cutoff     =     100.0000  Ry
     charge density cutoff     =     400.0000  Ry
     convergence threshold     =      1.0E-06
     mixing beta               =       0.7000
     number of iterations used =            8  local-TF  mixing
     Exchange-correlation= PBESOL
                           (   1   4  10   8   0   0   0)
     nstep                     =          200

     celldm(1)=  23.632159  celldm(2)=   0.000000  celldm(3)=   0.000000
     celldm(4)=   0.000000  celldm(5)=   0.000000  celldm(6)=   0.000000

     crystal axes: (cart. coord. in units of alat)
               a(1) = (   1.000000   0.000000   0.000000 )
               a(2) = (   0.000000   1.001423   0.000000 )
               a(3) = (  -0.018199   0.000000   0.821574 )

     reciprocal axes: (cart. coord. in units 2 pi/alat)
               b(1) = (  1.000000  0.000000  0.022152 )
               b(2) = (  0.000000  0.998579  0.000000 )
               b(3) = (  0.000000  0.000000  1.217175 )

     PseudoPot. # 1 for C  read from file:
     ./pseudo/C.pbesol-nc.UPF
     MD5 check sum: ce26087537ded160c8d400e183a8bf42
     Pseudo is Norm-conserving, Zval =  4.0
     Generated using "atomic" code by A. Dal Corso v.6.5
     Using radial grid of 1073 points,  1 beta functions with:
                l(1) =   1

     PseudoPot. # 2 for H  read from file:
     ./pseudo/H.pbesol-n-nc.UPF
     MD5 check sum: 7995ef24074557c85b430109caaacc09
     Pseudo is Norm-conserving, Zval =  1.0
     Generated using "atomic" code by A. Dal Corso v.6.5
     Using radial grid of  929 points,  0 beta functions with:

     PseudoPot. # 3 for N  read from file:
     ./pseudo/N.pbesol-nc.UPF
     MD5 check sum: e18cc5e4b8a5600c1a19b30c2cab1ca0
     Pseudo is Norm-conserving, Zval =  5.0
     Generated using "atomic" code by A. Dal Corso v.6.5
     Using radial grid of 1085 points,  1 beta functions with:
                l(1) =   1

     PseudoPot. # 4 for Ni read from file:
     ./pseudo/Ni.pbesol-n-nc.UPF
     MD5 check sum: 623411631e0c2eb7c0b2b9815547d2d9
     Pseudo is Norm-conserving + core correction, Zval = 10.0
     Generated using "atomic" code by A. Dal Corso v.6.5
     Using radial grid of 1195 points,  2 beta functions with:
                l(1) =   1
                l(2) =   2

     PseudoPot. # 5 for O  read from file:
     ./pseudo/O.pbesol-nc.UPF
     MD5 check sum: 73d10e7e91dbfcbe8a7e362101007f84
     Pseudo is Norm-conserving, Zval =  6.0
     Generated using "atomic" code by A. Dal Corso v.6.5
     Using radial grid of 1095 points,  1 beta functions with:
                l(1) =   1

     atomic species   valence    mass     pseudopotential
        C              4.00    12.01070     C ( 1.00)
        H              1.00     1.00794     H ( 1.00)
        N              5.00    14.00670     N ( 1.00)
        Ni            10.00    58.69340     Ni( 1.00)
        O              6.00    15.99940     O ( 1.00)

     Starting magnetic structure
     atomic species   magnetization
        C            0.000
        H            0.000
        N            0.000
        Ni           0.250
        O            0.000

     No symmetry found

   Cartesian axes

     site n.     atom                  positions (alat units)
         1           C   tau(   1) = (   0.2787122   0.9714307   0.4288486  )
         2           C   tau(   2) = (   0.0379730   0.0311503   0.0183277  )
         3           C   tau(   3) = (   0.3806882   0.0117868   0.4489838  )
         4           C   tau(   4) = (   0.1394042   0.9891499   0.0379124  )
         5           C   tau(   5) = (   0.4400787   0.9715829   0.5343281  )
         6           C   tau(   6) = (   0.1997920   0.0283934   0.1231482  )
         7           C   tau(   7) = (   0.1986011   0.5304580   0.4324635  )
         8           C   tau(   8) = (   0.4580372   0.4720800   0.0229252  )
         9           C   tau(   9) = (   0.2341003   0.6142040   0.4982314  )
        10           C   tau(  10) = (   0.4948422   0.3892302   0.0892369  )
        11           C   tau(  11) = (   0.2384981   0.8904717   0.4955761  )
        12           C   tau(  12) = (  -0.0008282   0.1123917   0.0856467  )
        13           C   tau(  13) = (   0.3947360   0.8906489   0.5977380  )
        14           C   tau(  14) = (   0.1557890   0.1097029   0.1871645  )
        15           C   tau(  15) = (   0.0756247   0.6098498   0.5975737  )
        16           C   tau(  16) = (   0.3367152   0.3921904   0.1884642  )
        17           C   tau(  17) = (   0.0350715   0.5258264   0.5351012  )
        18           C   tau(  18) = (   0.2948780   0.4753867   0.1254988  )
        19           C   tau(  19) = (   0.0981522   0.4849593   0.4519611  )
        20           C   tau(  20) = (   0.3569104   0.5163900   0.0416029  )
        21           C   tau(  21) = (   0.4248178   0.0994604   0.3833638  )
        22           C   tau(  22) = (   0.1639424   0.9010006   0.7933713  )
        23           C   tau(  23) = (   0.0588120   0.3950355   0.3866953  )
        24           C   tau(  24) = (   0.2984059   0.6050320   0.7961934  )
        25           C   tau(  25) = (   0.7787122   0.9714307   0.4288486  )
        26           C   tau(  26) = (   0.5379730   0.0311503   0.0183277  )
        27           C   tau(  27) = (   0.8806882   0.0117868   0.4489838  )
        28           C   tau(  28) = (   0.6394042   0.9891499   0.0379124  )
        29           C   tau(  29) = (   0.9400787   0.9715829   0.5343281  )
        30           C   tau(  30) = (   0.6997920   0.0283934   0.1231482  )
        31           C   tau(  31) = (   0.6986021   0.5304580   0.4324635  )
        32           C   tau(  32) = (   0.9580382   0.4720800   0.0229252  )
        33           C   tau(  33) = (   0.7341003   0.6142040   0.4982314  )
        34           C   tau(  34) = (   0.9948422   0.3892302   0.0892369  )
        35           C   tau(  35) = (   0.7384981   0.8904717   0.4955761  )
        36           C   tau(  36) = (   0.4991718   0.1123917   0.0856467  )
        37           C   tau(  37) = (   0.8947360   0.8906489   0.5977380  )
        38           C   tau(  38) = (   0.6557880   0.1097029   0.1871645  )
        39           C   tau(  39) = (   0.5756247   0.6098498   0.5975737  )
        40           C   tau(  40) = (   0.8367152   0.3921904   0.1884642  )
        41           C   tau(  41) = (   0.5350715   0.5258264   0.5351012  )
        42           C   tau(  42) = (   0.7948780   0.4753867   0.1254988  )
        43           C   tau(  43) = (   0.5981522   0.4849593   0.4519611  )
        44           C   tau(  44) = (   0.8569104   0.5163900   0.0416029  )
        45           C   tau(  45) = (   0.9248178   0.0994604   0.3833638  )
        46           C   tau(  46) = (   0.6639424   0.9010006   0.7933713  )
        47           C   tau(  47) = (   0.5588110   0.3950355   0.3866953  )
        48           C   tau(  48) = (   0.7984059   0.6050320   0.7961934  )
        49           H   tau(  49) = (   0.2290596   1.0009978   0.3640502  )
        50           H   tau(  50) = (   0.4693669   0.0026958   0.7751545  )
        51           H   tau(  51) = (   0.0198054   1.0002267   0.5533467  )
        52           H   tau(  52) = (   0.2791988   1.0000865   0.1418054  )
        53           H   tau(  53) = (   0.2505234   0.5016080   0.3691185  )
        54           H   tau(  54) = (  -0.0086584   0.5011092   0.7809458  )
        55           H   tau(  55) = (   0.1594426   0.8563401   0.4835457  )
        56           H   tau(  56) = (   0.0290492   0.6438591   0.6626884  )
        57           H   tau(  57) = (   0.2907535   0.3580349   0.2539083  )
        58           H   tau(  58) = (   0.4564147   0.4939330   0.5533319  )
        59           H   tau(  59) = (   0.2157623   0.5059201   0.1439924  )
        60           H   tau(  60) = (   0.7290596   1.0009978   0.3640502  )
[...]
       102           O   tau( 102) = (   0.8551690   0.6519036   0.7240468  )
       103           O   tau( 103) = (   0.8707656   0.1477170   0.3098797  )
       104           O   tau( 104) = (   0.6091506   0.8535652   0.7199135  )
       105           O   tau( 105) = (   0.9642788   0.3566669   0.3968154  )
       106           O   tau( 106) = (   0.7033039   0.6423280   0.8050417  )
       107           O   tau( 107) = (   0.5200847   0.1353504   0.3952413  )
       108           O   tau( 108) = (   0.7588616   0.8639860   0.8046490  )
       109           O   tau( 109) = (   0.4539911   0.8496967   0.6812017  )
       110           O   tau( 110) = (   0.2161010   0.1496848   0.2703176  )
       111           O   tau( 111) = (   0.3325587   0.6590688   0.4785736  )
       112           O   tau( 112) = (   0.5941927   0.3460879   0.0699406  )
       113           O   tau( 113) = (   0.6385495   0.8494614   0.4747467  )
       114           O   tau( 114) = (   0.3998256   0.1550804   0.0652034  )
       115           O   tau( 115) = (   0.8325587   0.6590688   0.4785728  )
       116           O   tau( 116) = (   0.0941937   0.3460879   0.0699414  )

     number of k points=     1  Marzari-Vanderbilt smearing, width (Ry)=  0.2000
                       cart. coord. in units 2pi/alat
        k(    1) = (   0.0000000   0.0000000   0.0000000), wk =   1.0000000

     Check: negative core charge=   -0.000145

     Initial potential from superposition of free atoms

     starting charge  447.99668, renormalised to  448.00000
     Starting wfcs are  388 randomized atomic wfcs

     Self-consistent Calculation

     iteration #  1     ecut=   100.00 Ry     beta= 0.70
     Davidson diagonalization with overlap
     ethr =  1.00E-02,  avg # of iterations =  4.0

[...]
     atom:   52    charge:    0.2556    magn:   -0.0008    constr:    0.0000
     atom:   53    charge:    0.3884    magn:   -0.0011    constr:    0.0000
     atom:   54    charge:    0.3998    magn:   -0.0012    constr:    0.0000
     atom:   55    charge:    0.3119    magn:   -0.0004    constr:    0.0000
     atom:   56    charge:    0.3350    magn:   -0.0002    constr:    0.0000
     atom:   57    charge:    0.3725    magn:   -0.0003    constr:    0.0000
     atom:   58    charge:    0.3462    magn:   -0.0013    constr:    0.0000
     atom:   59    charge:    0.4021    magn:   -0.0014    constr:    0.0000
     atom:   60    charge:    0.3447    magn:   -0.0008    constr:    0.0000
[...]
     atom:  102    charge:    1.8823    magn:    0.0361    constr:    0.0000
     atom:  103    charge:    1.6944    magn:    0.0322    constr:    0.0000
     atom:  104    charge:    1.0527    magn:    0.0262    constr:    0.0000
     atom:  105    charge:    1.8742    magn:    0.0340    constr:    0.0000
     atom:  106    charge:    1.7875    magn:    0.0345    constr:    0.0000
     atom:  107    charge:    0.9589    magn:    0.0317    constr:    0.0000
     atom:  108    charge:    1.5220    magn:    0.0344    constr:    0.0000
     atom:  109    charge:    1.6267    magn:    0.0101    constr:    0.0000
     atom:  110    charge:    0.9466    magn:    0.0079    constr:    0.0000
     atom:  111    charge:    1.8232    magn:    0.0075    constr:    0.0000
     atom:  112    charge:    1.7444    magn:    0.0069    constr:    0.0000
     atom:  113    charge:    1.8531    magn:    0.0072    constr:    0.0000
     atom:  114    charge:    1.5975    magn:    0.0056    constr:    0.0000
     atom:  115    charge:    1.8452    magn:    0.0078    constr:    0.0000
     atom:  116    charge:    1.6867    magn:    0.0075    constr:    0.0000

     End of self-consistent calculation

 ------ SPIN UP ------------

[...]

 ------ SPIN DOWN ----------

          k = 0.0000 0.0000 0.0000 ( 91663 PWs)   bands (ev):

   -22.3130 -22.2888 -22.2463 -22.2350 -22.1432 -22.1280 -22.1140 -22.1100
   -22.0115 -22.0031 -21.9626 -21.9402 -21.9062 -21.8698 -21.8450 -21.6636
   -19.0875 -19.0471 -19.0134 -18.9573 -18.9557 -18.9365 -18.9077 -18.8999
   -18.6556 -18.6200 -18.5843 -18.5513 -18.5493 -18.5442 -18.5298 -18.4938
   -15.2220 -15.1668 -15.1565 -15.1244 -15.1178 -15.0997 -15.0844 -15.0486
   -13.5618 -13.5507 -13.5357 -13.5086 -13.4962 -13.4809 -13.4624 -13.4276
   -11.7671 -11.6994 -11.6710 -11.5741 -11.5243 -11.4905 -11.4754 -11.4243
   -10.6315 -10.6167 -10.6076 -10.5824 -10.5586 -10.5383 -10.5333 -10.4940
    -9.7569  -9.7411  -9.7024  -9.6646  -9.5742  -9.5532  -9.5199  -9.4941
    -8.0613  -7.9519  -7.9169  -7.8886  -7.8525  -7.7680  -7.7483  -7.6884
    -7.6626  -7.5162  -7.4715  -7.4057  -7.3371  -7.2592  -7.1714  -7.1419
    -6.9130  -6.9068  -6.8622  -6.8176  -6.8144  -6.7930  -6.7539  -6.6943
    -6.4710  -6.4448  -6.3941  -6.3740  -6.3418  -6.3310  -6.2971  -6.2561
    -6.1977  -6.1644  -6.1595  -6.1326  -6.0960  -6.0659  -6.0409  -6.0111
    -5.9860  -5.9502  -5.9404  -5.9101  -5.8792  -5.8252  -5.7358  -5.7307
    -5.6603  -5.6131  -5.5787  -5.5424  -5.5208  -5.4582  -5.4093  -5.4032
    -5.3972  -5.3374  -5.3024  -5.2803  -5.2260  -5.1750  -5.1517  -5.0506
    -4.5320  -4.4584  -4.4068  -4.3860  -4.3088  -4.2457  -4.2184  -4.0888
    -4.0797  -4.0177  -3.9734  -3.9350  -3.8948  -3.8866  -3.8404  -3.8247
    -3.7470  -3.7423  -3.6936  -3.6807  -3.6795  -3.6376  -3.5900  -3.5526
    -3.5025  -3.4903  -3.4515  -3.4308  -3.3230  -3.3055  -3.2194  -3.1865
    -3.1400  -2.9835  -2.9280  -2.7789  -2.7623  -2.6489  -2.5822  -2.5595
    -2.5302  -2.4845  -2.4425  -2.4140  -2.3655  -2.3321  -2.2788  -2.2396
    -2.1717  -2.1126  -2.0691  -2.0420  -2.0021  -1.9978  -1.9407  -1.9234
    -1.8694  -1.8267  -1.8075  -1.7621  -1.6786  -1.6305  -1.4460  -1.2592
    -1.1190  -1.0255  -0.9926  -0.9460  -0.9215  -0.9118  -0.8845  -0.8562
    -0.8008  -0.7888  -0.7666  -0.7264  -0.6853  -0.6350  -0.6179  -0.5781
    -0.5103  -0.4663  -0.4128  -0.3676   0.4958   0.8568   0.9146   0.9576
     1.1397   1.1784   1.2111   1.2250   2.4087   2.4243   2.4497   2.4702
     2.5194   2.5441   2.5889   2.5993   3.7038   3.7832   3.8277   3.8463
     3.8913   3.9224   3.9973   4.0292   4.2042   4.9114   4.9759   4.9955
     5.0849   5.1240   5.1290   5.1615   5.2023   5.2280   5.2823   5.2938
     5.4977   5.7331   5.7876   5.8756   5.9745   6.0393   6.2396   6.2519
     6.3459   6.4434   6.4913   6.6859   6.8470   6.8784   7.0585   7.1408
     7.2085   7.3599

     the spin up/dw Fermi energies are     0.7322    0.3572 ev

!    total energy              =   -1878.49412556 Ry
     Harris-Foulkes estimate   =   -1878.49412556 Ry
     estimated scf accuracy    <          4.6E-09 Ry

     The total energy is the sum of the following terms:

     one-electron contribution =   -2742.36955563 Ry
     hartree contribution      =    1534.99197419 Ry
     xc contribution           =    -549.38930197 Ry
     ewald contribution        =    -124.23315896 Ry
     Dispersion Correction     =      -0.50227793 Ry
     smearing contrib. (-TS)   =       3.00819474 Ry

     total magnetization       =     8.00 Bohr mag/cell
     absolute magnetization    =     8.30 Bohr mag/cell

     convergence has been achieved in  14 iterations

     Forces acting on atoms (cartesian axes, Ry/au):

     atom    1 type  1   force =    -0.00017227    0.00021327   -0.00027614
     atom    2 type  1   force =    -0.00015466   -0.00007338    0.00036823
     atom    3 type  1   force =    -0.00015657   -0.00014624    0.00000779
     atom    4 type  1   force =     0.00054653   -0.00026935    0.00005671
     atom    5 type  1   force =    -0.00000489   -0.00003876   -0.00067266
     atom    6 type  1   force =    -0.00031776    0.00041961   -0.00063690
     atom    7 type  1   force =    -0.00010881    0.00008711    0.00008460
     atom    8 type  1   force =     0.00021827    0.00004671    0.00043146
     atom    9 type  1   force =    -0.00072018    0.00020240   -0.00038237
     atom   10 type  1   force =     0.00052461   -0.00049677    0.00005805
     atom   11 type  1   force =    -0.00017484   -0.00011098    0.00025019
     atom   12 type  1   force =    -0.00035643   -0.00070745   -0.00024867
     atom   13 type  1   force =     0.00022533    0.00041854    0.00066185
     atom   14 type  1   force =     0.00058815   -0.00010816   -0.00004133
     atom   15 type  1   force =    -0.00013489    0.00058616    0.00010822
     atom   16 type  1   force =     0.00024488    0.00026911    0.00028539
     atom   17 type  1   force =    -0.00033176   -0.00017392   -0.00023723
     atom   18 type  1   force =     0.00001611    0.00043073    0.00028550
     atom   19 type  1   force =    -0.00018315   -0.00000263    0.00004467
     atom   20 type  1   force =     0.00030773    0.00010535   -0.00079472
     atom   21 type  1   force =    -0.00044318    0.00003113    0.00025451
     atom   22 type  1   force =     0.00021363   -0.00081548    0.00000045
     atom   23 type  1   force =    -0.00007298    0.00008055   -0.00022296
     atom   24 type  1   force =    -0.00043662    0.00035939   -0.00021418
     atom   25 type  1   force =     0.00013612    0.00009920   -0.00063464
     atom   26 type  1   force =    -0.00004824    0.00027310   -0.00010837
     atom   27 type  1   force =     0.00046729    0.00015638   -0.00044825
     atom   28 type  1   force =     0.00035722   -0.00000152   -0.00017591
     atom   29 type  1   force =    -0.00002425    0.00061985   -0.00025290
     atom   30 type  1   force =    -0.00005513    0.00004448   -0.00012991
     atom   31 type  1   force =     0.00091138    0.00022339    0.00015375
     atom   32 type  1   force =     0.00054490    0.00004969   -0.00028387
     atom   33 type  1   force =    -0.00029156   -0.00018321    0.00042392
     atom   34 type  1   force =    -0.00005506    0.00003704    0.00029064
     atom   35 type  1   force =    -0.00022529   -0.00003336    0.00030173
     atom   36 type  1   force =    -0.00035645   -0.00045079    0.00004293
     atom   37 type  1   force =     0.00031914   -0.00074893    0.00068256
     atom   38 type  1   force =     0.00022383   -0.00022490   -0.00008535
     atom   39 type  1   force =    -0.00016821   -0.00039319    0.00015858
     atom   40 type  1   force =    -0.00007577   -0.00021702   -0.00002061
     atom   41 type  1   force =     0.00025710   -0.00027022   -0.00026201
     atom   42 type  1   force =     0.00003416   -0.00041508    0.00005239
     atom   43 type  1   force =    -0.00060275   -0.00010261   -0.00027553
     atom   44 type  1   force =    -0.00053682    0.00030563   -0.00006174
     atom   45 type  1   force =     0.00042594    0.00057294   -0.00018622
     atom   46 type  1   force =     0.00003499   -0.00050601    0.00046097
     atom   47 type  1   force =    -0.00029891   -0.00013765   -0.00042909
     atom   48 type  1   force =    -0.00014407   -0.00001479    0.00014884
     atom   49 type  2   force =    -0.00010920    0.00023579   -0.00028715
     atom   50 type  2   force =     0.00014556   -0.00007849   -0.00010945
     atom   51 type  2   force =    -0.00014105    0.00018671    0.00024180
     atom   52 type  2   force =     0.00081012   -0.00041605    0.00020514
     atom   53 type  2   force =    -0.00046715    0.00035997    0.00038096
     atom   54 type  2   force =     0.00045109   -0.00005405   -0.00031676
     atom   55 type  2   force =    -0.00028978    0.00027074    0.00002120
     atom   56 type  2   force =    -0.00019762    0.00029558    0.00009046
     atom   57 type  2   force =    -0.00009924    0.00016748    0.00061243
     atom   58 type  2   force =    -0.00070653   -0.00026046   -0.00008318
     atom   59 type  2   force =    -0.00006288    0.00019464   -0.00014825
     atom   60 type  2   force =     0.00020208    0.00025863   -0.00044322
[...]
     atom  102 type  5   force =     0.00040577   -0.00056182    0.00011525
     atom  103 type  5   force =    -0.00055769   -0.00037616   -0.00043081
     atom  104 type  5   force =    -0.00031429   -0.00018301   -0.00018476
     atom  105 type  5   force =    -0.00022658    0.00015049    0.00046854
     atom  106 type  5   force =    -0.00039259   -0.00009965    0.00025614
     atom  107 type  5   force =    -0.00008529    0.00025598    0.00049648
     atom  108 type  5   force =     0.00020987    0.00066445    0.00010996
     atom  109 type  5   force =     0.00033574   -0.00014750    0.00043154
     atom  110 type  5   force =     0.00089007    0.00054759   -0.00010851
     atom  111 type  5   force =     0.00074218    0.00022672   -0.00006817
     atom  112 type  5   force =    -0.00000372    0.00020054   -0.00015290
     atom  113 type  5   force =     0.00053472   -0.00002771   -0.00039250
     atom  114 type  5   force =    -0.00028237   -0.00042336   -0.00020440
     atom  115 type  5   force =     0.00042802    0.00028661   -0.00003166
     atom  116 type  5   force =     0.00018327    0.00073330    0.00029512

     Total force =     0.006280     Total SCF correction =     0.000160

     bfgs converged in  84 scf cycles and  83 bfgs steps
     (criteria: energy <  1.0E-04 Ry, force <  1.0E-03 Ry/Bohr)

     End of BFGS Geometry Optimization

     Final energy   =   -1878.4941255636 Ry
Begin final coordinates

ATOMIC_POSITIONS (crystal)
C             0.3005256238        0.9805535541        0.5398761969
C             0.0155907385        0.0140181004        0.0366751550
C             0.4049972357        0.0129480899        0.5730235734
C             0.1216279175        0.9782411557        0.0484618954
C             0.4584121533        0.9651743330        0.6774123787
C             0.1908807104        0.0282076726        0.1365574899
C             0.2092775956        0.5198893876        0.5257579443
C             0.4535582952        0.4772795188        0.0240451418
C             0.2427430180        0.6077242214        0.6037227941
C             0.4935798008        0.3923765376        0.1025640873
C             0.2537507330        0.8981759386        0.6117747959
C            -0.0171690736        0.0992734685        0.1150879698
C             0.4067319240        0.8813483526        0.7447689085
C             0.1524300454        0.1148626153        0.2109605435
C             0.0834716657        0.6056687122        0.7174712805
C             0.3405541454        0.3933902876        0.2272991269
C             0.0439302482        0.5206201344        0.6418662473
C             0.2944444698        0.4751623354        0.1513255762
C             0.1085218067        0.4774380687        0.5454595656
C             0.3527608364        0.5180426501        0.0488373679
C             0.4598413826        0.0964269210        0.4966930759
C             0.1633206312        0.8909043746        0.9684475369
C             0.0663883144        0.3897486767        0.4654018715
C             0.3077967251        0.6048637464        0.9681134881
C             0.7855188524        0.9812981140        0.5268370986
C             0.5557443972        0.0290689782        0.0246284097
C             0.8884545868        0.0200049996        0.5476505301
C             0.6587149856        0.9922252974        0.0519237961
C             0.9553566205        0.9743290042        0.6433982445
C             0.7150029974        0.0334401595        0.1600042448
C             0.7148208994        0.5227004900        0.5274005979
C             0.9577715826        0.4782658835        0.0247162794
C             0.7505969088        0.6111281799        0.6024005618
C             0.9913431655        0.3900219610        0.1019331102
C             0.7519970864        0.8936098926        0.6021300463
C             0.5115263543        0.1079445769        0.1065934196
C             0.9155388633        0.8905184472        0.7180491889
C             0.6674739389        0.1134616601        0.2348526635
C             0.5955933783        0.6083743583        0.7249374362
C             0.8358677641        0.3963223712        0.2219356668
C             0.5539166358        0.5227484824        0.6519855276
C             0.7956287993        0.4815563223        0.1464406059
C             0.6151029902        0.4798070641        0.5520221863
C             0.8584593753        0.5230108683        0.0472728038
C             0.9280322041        0.1076924127        0.4684937095
C             0.7058506465        0.9090114810        0.9694273313
C             0.5735752255        0.3918054285        0.4717731428
C             0.8190467917        0.6118067353        0.9664796205
H             0.2556749022        1.0175838248        0.4604337907
H             0.5064958833       -0.0017712287        0.9450078824
H             0.0360452091        1.0032809770        0.6617318213
H             0.2742796203        1.0058442395        0.1483729019
H             0.2637568014        0.4904472797        0.4529518420
H             0.0109277224        0.5063948765        0.9498712850
H             0.1731625219        0.8696685959        0.5889898545
H             0.0361956391        0.6398968796        0.7947599020
H             0.2984462242        0.3602043332        0.3093710106
H             0.4755713998        0.4916197328        0.6739143443
H             0.2153417653        0.5039343076        0.1740050165
H             0.7293165020        1.0143143402        0.4556148046
[...]
O             0.8754901406        0.6550254988        0.8767983672
O             0.8679835080        0.1578480780        0.3849132967
O             0.6543452673        0.8718508099        0.8687409788
O             0.9695639621        0.3580185874        0.4753783149
O             0.7255212154        0.6524180313        0.9778037569
O             0.5561570047        0.1219028852        0.5148113276
O             0.7972074354        0.8662817767        0.9891879617
O             0.4592589964        0.8337705674        0.8381675225
O             0.2212912059        0.1657185378        0.2851244992
O             0.3360798612        0.6496587077        0.5796233755
O             0.5874795102        0.3535663022        0.0739107261
O             0.6573654691        0.8534661732        0.5765834667
O             0.4134725482        0.1392713782        0.0799892663
O             0.8427073006        0.6528141853        0.5723805620
O             0.0822639006        0.3450463413        0.0732663106
End final coordinates

     Writing output data file /nfs/hpc/share/gantzlen/NiPyC2_relax_sc211_ortho_functionalized_OH_pbesol_relax.save/

     General routines

     Parallel routines

   This run was terminated on:  10:30:22   2Aug2020

   JOB DONE.
QE finished Sun Aug 2 10:30:22 PDT 2020