     Program PWSCF v.6.5 starts on  5Jul2020 at 11: 5:32

     K-points division:     npool     =       2
     R & G space division:  proc/nbgrp/npool/nimage =       8
     Reading input from ./QE_input_scripts/pw.NiPyC2_relax_sc211_meta_functionalized_SH_pbesol_relax_frozen_parent_atoms.in
Warning: card &CELL ignored
Warning: card    CELL_DYNAMICS = 'BFGS' ignored
Warning: card    CELL_DOFREE = 'XYZ' ignored
Warning: card / ignored

     Current dimensions of program PWSCF are:
     Max number of different atomic species (ntypx) = 10
     Max number of k-points (npk) =  40000
     Max angular momentum in pseudopotentials (lmaxx) =  3

     Parameters for Dispersion (Grimme-D2) Correction:
       atom      VdW radius       C_6

        C          2.744         60.710
        H          1.892          4.857
        N          2.640         42.670
        Ni         2.952        374.666
        O          2.536         24.284
        S          3.180        193.230

     gamma-point specific algorithms are used

     Subspace diagonalization in iterative solution of the eigenvalue problem:
     a serial algorithm will be used

     bravais-lattice index     =            0
     lattice parameter (alat)  =      23.6322  a.u.
     unit-cell volume          =   10858.6228 (a.u.)^3
     number of atoms/cell      =          116
     number of atomic types    =            6
     number of electrons       =       448.00 (up: 228.00, down: 220.00)
     number of Kohn-Sham states=          274
     kinetic-energy cutoff     =     100.0000  Ry
     charge density cutoff     =     400.0000  Ry
     convergence threshold     =      5.0E-06
     mixing beta               =       0.7000
     number of iterations used =            8  local-TF  mixing
     Exchange-correlation= PBESOL
                           (   1   4  10   8   0   0   0)
     nstep                     =          200

     celldm(1)=  23.632159  celldm(2)=   0.000000  celldm(3)=   0.000000
     celldm(4)=   0.000000  celldm(5)=   0.000000  celldm(6)=   0.000000

     crystal axes: (cart. coord. in units of alat)
               a(1) = (   1.000000   0.000000   0.000000 )
               a(2) = (   0.000000   1.001423   0.000000 )
               a(3) = (  -0.018199   0.000000   0.821574 )

     reciprocal axes: (cart. coord. in units 2 pi/alat)
               b(1) = (  1.000000  0.000000  0.022152 )
               b(2) = (  0.000000  0.998579  0.000000 )
               b(3) = (  0.000000  0.000000  1.217175 )

     PseudoPot. # 1 for C  read from file:
     ./pseudo/C.pbesol-nc.UPF
     MD5 check sum: ce26087537ded160c8d400e183a8bf42
     Pseudo is Norm-conserving, Zval =  4.0
     Generated using "atomic" code by A. Dal Corso v.6.5
     Using radial grid of 1073 points,  1 beta functions with:
                l(1) =   1

     PseudoPot. # 2 for H  read from file:
     ./pseudo/H.pbesol-n-nc.UPF
     MD5 check sum: 7995ef24074557c85b430109caaacc09
     Pseudo is Norm-conserving, Zval =  1.0
     Generated using "atomic" code by A. Dal Corso v.6.5
     Using radial grid of  929 points,  0 beta functions with:

     PseudoPot. # 3 for N  read from file:
     ./pseudo/N.pbesol-nc.UPF
     MD5 check sum: e18cc5e4b8a5600c1a19b30c2cab1ca0
     Pseudo is Norm-conserving, Zval =  5.0
     Generated using "atomic" code by A. Dal Corso v.6.5
     Using radial grid of 1085 points,  1 beta functions with:
                l(1) =   1

     PseudoPot. # 4 for Ni read from file:
     ./pseudo/Ni.pbesol-n-nc.UPF
     MD5 check sum: 623411631e0c2eb7c0b2b9815547d2d9
     Pseudo is Norm-conserving + core correction, Zval = 10.0
     Generated using "atomic" code by A. Dal Corso v.6.5
     Using radial grid of 1195 points,  2 beta functions with:
                l(1) =   1
                l(2) =   2

     PseudoPot. # 5 for O  read from file:
     ./pseudo/O.pbesol-nc.UPF
     MD5 check sum: 73d10e7e91dbfcbe8a7e362101007f84
     Pseudo is Norm-conserving, Zval =  6.0
     Generated using "atomic" code by A. Dal Corso v.6.5
     Using radial grid of 1095 points,  1 beta functions with:
                l(1) =   1

     PseudoPot. # 6 for S  read from file:
     ./pseudo/S.pbesol-n-nc.UPF
     MD5 check sum: d8715477aa2619fbc4411ed981bb1c26
     Pseudo is Norm-conserving + core correction, Zval =  6.0
     Generated using "atomic" code by A. Dal Corso v.6.5
     Using radial grid of 1151 points,  2 beta functions with:
                l(1) =   0
                l(2) =   1

     atomic species   valence    mass     pseudopotential
        C              4.00    12.01070     C ( 1.00)
        H              1.00     1.00794     H ( 1.00)
        N              5.00    14.00670     N ( 1.00)
        Ni            10.00    58.69340     Ni( 1.00)
        O              6.00    15.99940     O ( 1.00)
        S              6.00    32.06500     S ( 1.00)

     Starting magnetic structure
     atomic species   magnetization
        C            0.000
        H            0.000
        N            0.000
        Ni           0.250
        O            0.000
        S            0.000

     No symmetry found

   Cartesian axes

     site n.     atom                  positions (alat units)
         1           C   tau(   1) = (   0.2787122   0.9714307   0.4288486  )
         2           C   tau(   2) = (   0.0379730   0.0311503   0.0183277  )
         3           C   tau(   3) = (   0.3806882   0.0117868   0.4489838  )
         4           C   tau(   4) = (   0.1394042   0.9891499   0.0379124  )
         5           C   tau(   5) = (   0.4400787   0.9715829   0.5343281  )
         6           C   tau(   6) = (   0.1997920   0.0283934   0.1231482  )
         7           C   tau(   7) = (   0.1986011   0.5304580   0.4324635  )
         8           C   tau(   8) = (   0.4580372   0.4720800   0.0229252  )
         9           C   tau(   9) = (   0.2341003   0.6142040   0.4982314  )
        10           C   tau(  10) = (   0.4948422   0.3892302   0.0892369  )
        11           C   tau(  11) = (   0.2384981   0.8904717   0.4955761  )
        12           C   tau(  12) = (  -0.0008282   0.1123917   0.0856467  )
        13           C   tau(  13) = (   0.3947360   0.8906489   0.5977380  )
        14           C   tau(  14) = (   0.1557890   0.1097029   0.1871645  )
        15           C   tau(  15) = (   0.0756247   0.6098498   0.5975737  )
        16           C   tau(  16) = (   0.3367152   0.3921904   0.1884642  )
        17           C   tau(  17) = (   0.0350715   0.5258264   0.5351012  )
        18           C   tau(  18) = (   0.2948780   0.4753867   0.1254988  )
        19           C   tau(  19) = (   0.0981522   0.4849593   0.4519611  )
        20           C   tau(  20) = (   0.3569104   0.5163900   0.0416029  )
        21           C   tau(  21) = (   0.4248178   0.0994604   0.3833638  )
        22           C   tau(  22) = (   0.1639424   0.9010006   0.7933713  )
        23           C   tau(  23) = (   0.0588120   0.3950355   0.3866953  )
        24           C   tau(  24) = (   0.2984059   0.6050320   0.7961934  )
        25           C   tau(  25) = (   0.7787122   0.9714307   0.4288486  )
        26           C   tau(  26) = (   0.5379730   0.0311503   0.0183277  )
        27           C   tau(  27) = (   0.8806882   0.0117868   0.4489838  )
        28           C   tau(  28) = (   0.6394042   0.9891499   0.0379124  )
        29           C   tau(  29) = (   0.9400787   0.9715829   0.5343281  )
        30           C   tau(  30) = (   0.6997920   0.0283934   0.1231482  )
        31           C   tau(  31) = (   0.6986021   0.5304580   0.4324635  )
        32           C   tau(  32) = (   0.9580382   0.4720800   0.0229252  )
        33           C   tau(  33) = (   0.7341003   0.6142040   0.4982314  )
        34           C   tau(  34) = (   0.9948422   0.3892302   0.0892369  )
        35           C   tau(  35) = (   0.7384981   0.8904717   0.4955761  )
        36           C   tau(  36) = (   0.4991718   0.1123917   0.0856467  )
        37           C   tau(  37) = (   0.8947360   0.8906489   0.5977380  )
        38           C   tau(  38) = (   0.6557880   0.1097029   0.1871645  )
        39           C   tau(  39) = (   0.5756247   0.6098498   0.5975737  )
        40           C   tau(  40) = (   0.8367152   0.3921904   0.1884642  )
        41           C   tau(  41) = (   0.5350715   0.5258264   0.5351012  )
        42           C   tau(  42) = (   0.7948780   0.4753867   0.1254988  )
        43           C   tau(  43) = (   0.5981522   0.4849593   0.4519611  )
        44           C   tau(  44) = (   0.8569104   0.5163900   0.0416029  )
        45           C   tau(  45) = (   0.9248178   0.0994604   0.3833638  )
        46           C   tau(  46) = (   0.6639424   0.9010006   0.7933713  )
        47           C   tau(  47) = (   0.5588110   0.3950355   0.3866953  )
        48           C   tau(  48) = (   0.7984059   0.6050320   0.7961934  )
        49           H   tau(  49) = (   0.4693669   0.0026958   0.7751545  )
        50           H   tau(  50) = (   0.2791988   1.0000865   0.1418054  )
        51           H   tau(  51) = (   0.3118554   0.6514319   0.4868937  )
        52           H   tau(  52) = (   0.0732386   0.3533532   0.0780726  )
        53           H   tau(  53) = (   0.1594426   0.8563401   0.4835457  )
        54           H   tau(  54) = (   0.4206861   0.1479423   0.0738480  )
        55           H   tau(  55) = (   0.4386511   0.8563902   0.6644572  )
        56           H   tau(  56) = (   0.2006191   0.1433067   0.2536997  )
        57           H   tau(  57) = (   0.0290492   0.6438591   0.6626884  )
        58           H   tau(  58) = (   0.2907535   0.3580349   0.2539083  )
        59           H   tau(  59) = (   0.2157623   0.5059201   0.1439924  )
        60           H   tau(  60) = (   0.7290596   1.0009978   0.3640502  )
[...]
       102           O   tau( 102) = (   0.8551690   0.6519036   0.7240468  )
       103           O   tau( 103) = (   0.8707656   0.1477170   0.3098797  )
       104           O   tau( 104) = (   0.6091506   0.8535652   0.7199135  )
       105           O   tau( 105) = (   0.9642788   0.3566669   0.3968154  )
       106           O   tau( 106) = (   0.7033039   0.6423280   0.8050417  )
       107           O   tau( 107) = (   0.5200847   0.1353504   0.3952413  )
       108           O   tau( 108) = (   0.7588616   0.8639860   0.8046490  )
       109           S   tau( 109) = (   0.1940224   0.0140269   0.3209488  )
       110           S   tau( 110) = (   0.9340844   0.9904167   0.7320670  )
       111           S   tau( 111) = (   0.2867447   0.4879826   0.3268477  )
       112           S   tau( 112) = (   0.5277880   0.5151903   0.7387661  )
       113           S   tau( 113) = (   0.0727271   0.0140550   0.5687964  )
       114           S   tau( 114) = (   0.8320847   0.9842009   0.1567063  )
       115           S   tau( 115) = (   0.4036711   0.4771001   0.5675772  )
       116           S   tau( 116) = (   0.0277890   0.5151913   0.7387670  )

     number of k points=     1  Marzari-Vanderbilt smearing, width (Ry)=  0.2000
                       cart. coord. in units 2pi/alat
[...]
     atom:  105    charge:    3.2587    magn:    0.0551    constr:    0.0000
     atom:  106    charge:    3.3405    magn:    0.0125    constr:    0.0000
     atom:  107    charge:    3.2603    magn:    0.0574    constr:    0.0000
     atom:  108    charge:    3.3314    magn:    0.0168    constr:    0.0000
     atom:  109    charge:    0.9149    magn:    0.0252    constr:    0.0000
     atom:  110    charge:    0.8620    magn:    0.0272    constr:    0.0000
     atom:  111    charge:    0.9473    magn:    0.0262    constr:    0.0000
     atom:  112    charge:    0.9431    magn:    0.0300    constr:    0.0000
     atom:  113    charge:    0.9705    magn:    0.0097    constr:    0.0000
     atom:  114    charge:    1.0000    magn:    0.0066    constr:    0.0000
     atom:  115    charge:    0.9966    magn:    0.0116    constr:    0.0000
     atom:  116    charge:    0.9501    magn:    0.0358    constr:    0.0000

     End of self-consistent calculation

 ------ SPIN UP ------------

[...]

 ------ SPIN DOWN ----------

          k = 0.0000 0.0000 0.0000 ( 91663 PWs)   bands (ev):

   -22.6550 -22.4103 -22.3823 -21.3058 -21.2142 -20.8906 -20.8351 -20.8026
   -19.1302 -19.0525 -18.9763 -18.2963 -18.1992 -18.0084 -17.9791 -17.9736
   -17.9460 -17.9014 -17.8648 -17.8414 -17.8180 -17.8053 -17.7682 -17.7335
   -15.6411 -15.3825 -14.9005 -14.8904 -14.8726 -14.8541 -14.8446 -14.8115
   -13.9503 -13.9102 -13.7929 -13.7240 -13.6892 -13.5500 -13.5382 -13.4488
   -12.3788 -12.2989 -12.1982 -12.1321 -12.0350 -11.7501 -11.5607 -11.5388
   -10.7434 -10.6631 -10.5711 -10.5247 -10.4511 -10.3877 -10.2924 -10.1618
   -10.0397  -9.9282  -9.7409  -9.5352  -9.5042  -9.4570  -9.3782  -9.3481
    -9.2665  -9.1879  -9.0750  -8.4566  -8.2877  -8.0761  -7.9537  -7.8391
    -7.7486  -7.6470  -7.4959  -6.9707  -6.8336  -6.7432  -6.7208  -6.6916
    -6.6204  -6.5767  -6.5575  -6.4882  -6.4741  -6.3073  -6.2776  -6.2705
    -6.2009  -6.0862  -6.0085  -5.9159  -5.8980  -5.7853  -5.7503  -5.6754
    -5.6246  -5.5834  -5.5203  -5.4971  -5.4223  -5.3972  -5.3794  -5.3242
    -5.2848  -5.2727  -5.2071  -5.1786  -5.1210  -5.1127  -5.0838  -5.0267
    -5.0082  -4.9549  -4.9315  -4.9113  -4.8034  -4.7738  -4.7587  -4.7230
    -4.6657  -4.6214  -4.5626  -4.5277  -4.4714  -4.4493  -4.4252  -4.3141
    -4.2370  -4.2047  -4.1013  -4.0615  -4.0495  -3.9926  -3.9720  -3.9049
    -3.8559  -3.8196  -3.7613  -3.6166  -3.5870  -3.5167  -3.4211  -3.3701
    -3.1448  -3.0916  -3.0400  -2.9761  -2.9148  -2.8936  -2.8627  -2.8185
    -2.7867  -2.7271  -2.6835  -2.6311  -2.5352  -2.4639  -2.4021  -2.2509
    -2.2278  -2.1892  -2.1608  -2.1065  -2.0734  -2.0280  -1.9747  -1.9687
    -1.9175  -1.8747  -1.8066  -1.7182  -1.6782  -1.6004  -1.5412  -1.5239
    -1.4871  -1.4193  -1.3871  -1.3752  -1.3094  -1.2773  -1.2678  -1.1962
    -1.1453  -1.1165  -1.0756  -0.9569  -0.9275  -0.9025  -0.7977  -0.7378
    -0.7254  -0.6938  -0.6538  -0.5820  -0.4816  -0.4021  -0.2909  -0.0895
    -0.0860   0.0347   0.0719   0.1310   0.1401   0.2037   0.2339   0.2764
     0.2907   0.3030   0.3456   0.3945   0.3966   0.5324   0.5483   0.7320
     0.9125   0.9991   1.6039   1.8639   1.9388   1.9803   1.9914   2.1359
     2.2105   2.2479   2.2670   2.2963   2.9438   3.0173   3.1169   3.1805
     3.2405   3.3085   3.4532   3.5795   3.9394   4.0344   4.1824   4.2538
     4.2810   4.3887   4.4523   4.5428   4.6743   4.9175   5.0882   5.1269
     5.2712   5.3273   5.3621   5.4816   5.5710   5.6006   5.6895   5.7751
     5.8878   5.9195   5.9513   6.0196   6.0329   6.0809   6.1441   6.2406
     6.3096   6.4135   6.4887   6.6238   6.7113   6.8310   6.8477   6.9892
     7.0222   7.1342

     the spin up/dw Fermi energies are     1.8695    1.5174 ev

!    total energy              =   -1808.60564182 Ry
     Harris-Foulkes estimate   =   -1808.60564187 Ry
     estimated scf accuracy    <       0.00000005 Ry

     The total energy is the sum of the following terms:

     one-electron contribution =   -2378.87264135 Ry
     hartree contribution      =    1362.22177561 Ry
     xc contribution           =    -555.42554781 Ry
     ewald contribution        =    -238.55838384 Ry
     Dispersion Correction     =      -0.55009908 Ry
     smearing contrib. (-TS)   =       2.57925466 Ry

     total magnetization       =     8.00 Bohr mag/cell
     absolute magnetization    =     8.16 Bohr mag/cell

     convergence has been achieved in   7 iterations

     Forces acting on atoms (cartesian axes, Ry/au):

     atom    1 type  1   force =    -0.02781378   -0.03362337    0.01213101
     atom    2 type  1   force =    -0.01399842    0.04362202   -0.00344510
     atom    3 type  1   force =     0.01232352    0.02640839   -0.02261105
     atom    4 type  1   force =     0.02697367   -0.03382667   -0.01421244
     atom    5 type  1   force =    -0.01631588   -0.01191388    0.00242494
     atom    6 type  1   force =    -0.00941190    0.00617350   -0.02468057
     atom    7 type  1   force =     0.02732803    0.03204805    0.02028481
     atom    8 type  1   force =     0.02795940   -0.03589708    0.01319728
     atom    9 type  1   force =    -0.02803892    0.01804216    0.04056692
     atom   10 type  1   force =    -0.02276692   -0.01646298    0.05482976
     atom   11 type  1   force =     0.02266291   -0.01786272    0.04691413
     atom   12 type  1   force =     0.01929941    0.01314187    0.06132924
     atom   13 type  1   force =     0.00520456    0.00407277   -0.00369777
     atom   14 type  1   force =     0.00329290    0.01381334   -0.01439515
     atom   15 type  1   force =     0.00153689    0.01081255   -0.02416778
     atom   16 type  1   force =    -0.00367372   -0.01381623   -0.02099434
     atom   17 type  1   force =     0.00982416    0.00906295   -0.01410367
     atom   18 type  1   force =     0.01335379   -0.01122712   -0.02425990
     atom   19 type  1   force =    -0.01300255   -0.02786237   -0.02160341
     atom   20 type  1   force =    -0.04048282    0.04481741   -0.02658068
     atom   21 type  1   force =     0.00374999    0.00354772   -0.00319575
     atom   22 type  1   force =     0.01224811    0.00073864    0.00728996
     atom   23 type  1   force =    -0.00394912   -0.00230356   -0.00250562
     atom   24 type  1   force =     0.16759764   -0.05295106   -0.04067271
     atom   25 type  1   force =    -0.00213682   -0.01521591    0.01576366
     atom   26 type  1   force =    -0.00203059    0.01153056    0.00914320
     atom   27 type  1   force =     0.01825229    0.02577733   -0.02823685
     atom   28 type  1   force =     0.01487142   -0.02748627   -0.02494870
     atom   29 type  1   force =    -0.00961675   -0.00786512   -0.01326698
     atom   30 type  1   force =    -0.00842141    0.00320138    0.03057949
     atom   31 type  1   force =     0.00049451    0.01413582    0.01260215
     atom   32 type  1   force =     0.03576169   -0.02342295   -0.00000843
     atom   33 type  1   force =    -0.00588012   -0.01388412   -0.00707348
     atom   34 type  1   force =    -0.02238154   -0.02722807    0.05262272
     atom   35 type  1   force =     0.00536449    0.01171269   -0.00678000
     atom   36 type  1   force =     0.00648595   -0.01157139   -0.00550118
     atom   37 type  1   force =    -0.01252568   -0.02025529   -0.00540586
     atom   38 type  1   force =     0.00039419    0.01169024    0.00041970
     atom   39 type  1   force =     0.01552999    0.02555374   -0.01822351
     atom   40 type  1   force =    -0.01110809    0.00668108   -0.00317437
     atom   41 type  1   force =     0.00475062    0.00329813   -0.00374406
     atom   42 type  1   force =     0.02137340   -0.01446121   -0.00248542
     atom   43 type  1   force =    -0.01253240   -0.02331432   -0.02530151
     atom   44 type  1   force =    -0.04385177    0.04536514   -0.02322807
     atom   45 type  1   force =    -0.07770396   -0.01042821   -0.02424459
     atom   46 type  1   force =    -0.15722526    0.03215778   -0.04478375
     atom   47 type  1   force =     0.06612814    0.01137357   -0.02340227
     atom   48 type  1   force =     0.18758354   -0.06138611   -0.04746713
     atom   49 type  2   force =     0.00215652   -0.00359853   -0.00205503
     atom   50 type  2   force =     0.00338458   -0.00003467   -0.00907359
     atom   51 type  2   force =    -0.00133177    0.00545628    0.00173647
     atom   52 type  2   force =     0.00114305   -0.00320189    0.00220429
     atom   53 type  2   force =     0.00042736   -0.00613068    0.00049489
     atom   54 type  2   force =    -0.00032157   -0.00037537    0.00098552
     atom   55 type  2   force =    -0.00191878    0.00034623   -0.00035399
     atom   56 type  2   force =     0.00788898    0.01846361   -0.01252820
     atom   57 type  2   force =    -0.00742346    0.01676865   -0.01148431
     atom   58 type  2   force =    -0.00779220   -0.01721625   -0.01338373
     atom   59 type  2   force =    -0.00475704    0.00001170   -0.00465845
     atom   60 type  2   force =     0.00009030    0.00631076    0.00231452
[...]
     atom  102 type  5   force =    -0.03560734   -0.01539972    0.05511929
     atom  103 type  5   force =     0.00799420   -0.00509339    0.02106836
     atom  104 type  5   force =     0.04170798    0.02062002    0.04217348
     atom  105 type  5   force =    -0.00441842    0.00163373    0.00453437
     atom  106 type  5   force =    -0.13348865    0.03138383    0.04322619
     atom  107 type  5   force =     0.00251090   -0.00217950    0.00357688
     atom  108 type  5   force =     0.09740758   -0.02508518    0.02043121
     atom  109 type  6   force =     0.00019859   -0.00026781    0.00074486
     atom  110 type  6   force =     0.00003981   -0.00041831   -0.00002646
     atom  111 type  6   force =    -0.00028190   -0.00051454    0.00001939
     atom  112 type  6   force =    -0.00017439    0.00018624    0.00015343
     atom  113 type  6   force =     0.00060244    0.00070693   -0.00026118
     atom  114 type  6   force =     0.00021712    0.00033357    0.00072048
     atom  115 type  6   force =     0.00045107   -0.00083580   -0.00020505
     atom  116 type  6   force =     0.00006338   -0.00008466    0.00045086

     Total force =     0.002585     Total SCF correction =     0.000140

     bfgs converged in  71 scf cycles and  70 bfgs steps
     (criteria: energy <  1.0E-04 Ry, force <  1.0E-03 Ry/Bohr)

     End of BFGS Geometry Optimization

     Final energy   =   -1808.6056418200 Ry
Begin final coordinates

ATOMIC_POSITIONS (crystal)
C             0.2882120000        0.9700500000        0.5219840000    0   0   0
C             0.0383790000        0.0311060000        0.0223080000    0   0   0
C             0.3906340000        0.0117700000        0.5464920000    0   0   0
C             0.1402440000        0.9877440000        0.0461460000    0   0   0
C             0.4519150000        0.9702020000        0.6503710000    0   0   0
C             0.2025200000        0.0283530000        0.1498930000    0   0   0
C             0.2081810000        0.5297040000        0.5263840000    0   0   0
C             0.4585450000        0.4714090000        0.0279040000    0   0   0
C             0.2451370000        0.6133310000        0.6064350000    0   0   0
C             0.4968190000        0.3886770000        0.1086170000    0   0   0
C             0.2494760000        0.8892060000        0.6032030000    0   0   0
C             0.0010690000        0.1122320000        0.1042470000    0   0   0
C             0.4079770000        0.8893830000        0.7275520000    0   0   0
C             0.1599350000        0.1095470000        0.2278120000    0   0   0
C             0.0888620000        0.6089830000        0.7273520000    0   0   0
C             0.3408900000        0.3916330000        0.2293940000    0   0   0
C             0.0469250000        0.5250790000        0.6513120000    0   0   0
C             0.2976580000        0.4747110000        0.1527540000    0   0   0
C             0.1081640000        0.4842700000        0.5501160000    0   0   0
C             0.3578320000        0.5156560000        0.0506380000    0   0   0
C             0.4333100000        0.0993190000        0.4666210000    0   0   0
C             0.1815170000        0.8997200000        0.9656720000    0   0   0
C             0.0673780000        0.3944740000        0.4706760000    0   0   0
C             0.3160430000        0.6041720000        0.9691070000    0   0   0
C             0.7882120000        0.9700500000        0.5219840000    0   0   0
C             0.5383790000        0.0311060000        0.0223080000    0   0   0
C             0.8906340000        0.0117700000        0.5464920000    0   0   0
C             0.6402440000        0.9877440000        0.0461460000    0   0   0
C             0.9519150000        0.9702020000        0.6503710000    0   0   0
C             0.7025200000        0.0283530000        0.1498930000    0   0   0
C             0.7081820000        0.5297040000        0.5263840000    0   0   0
C             0.9585460000        0.4714090000        0.0279040000    0   0   0
C             0.7451370000        0.6133310000        0.6064350000    0   0   0
C             0.9968190000        0.3886770000        0.1086170000    0   0   0
C             0.7494760000        0.8892060000        0.6032030000    0   0   0
C             0.5010690000        0.1122320000        0.1042470000    0   0   0
C             0.9079770000        0.8893830000        0.7275520000    0   0   0
C             0.6599340000        0.1095470000        0.2278120000    0   0   0
C             0.5888620000        0.6089830000        0.7273520000    0   0   0
C             0.8408900000        0.3916330000        0.2293940000    0   0   0
C             0.5469250000        0.5250790000        0.6513120000    0   0   0
C             0.7976580000        0.4747110000        0.1527540000    0   0   0
C             0.6081640000        0.4842700000        0.5501160000    0   0   0
C             0.8578320000        0.5156560000        0.0506380000    0   0   0
C             0.9333100000        0.0993190000        0.4666210000    0   0   0
C             0.6815170000        0.8997200000        0.9656720000    0   0   0
C             0.5673770000        0.3944740000        0.4706760000    0   0   0
C             0.8160430000        0.6041720000        0.9691070000    0   0   0
H             0.4865380000        0.0026920000        0.9434990000    0   0   0
H             0.2823400000        0.9986650000        0.1726020000    0   0   0
H             0.3226410000        0.6505060000        0.5926350000    0   0   0
H             0.0749680000        0.3528510000        0.0950280000    0   0   0
H             0.1701540000        0.8551230000        0.5885600000    0   0   0
H             0.4223220000        0.1477320000        0.0898860000    0   0   0
H             0.4533700000        0.8551730000        0.8087610000    0   0   0
H             0.2062390000        0.1431030000        0.3087970000    0   0   0
H             0.0437290000        0.6429440000        0.8066080000    0   0   0
H             0.2963780000        0.3575260000        0.3090510000    0   0   0
H             0.2189520000        0.5052010000        0.1752640000    0   0   0
H             0.7371240000        0.9995750000        0.4431130000    0   0   0
[...]
O             0.8712080000        0.6509770000        0.8812920000    0   0   0
O             0.8776300000        0.1475070000        0.3771780000    0   0   0
O             0.6250980000        0.8523520000        0.8762610000    0   0   0
O             0.9730690000        0.3561600000        0.4829940000    0   0   0
O             0.7211370000        0.6414150000        0.9798770000    0   0   0
O             0.5288400000        0.1351580000        0.4810780000    0   0   0
O             0.7766860000        0.8627580000        0.9793990000    0   0   0
S             0.1907353991       -0.0250280707        0.3993193381
S             0.9530018488        1.0364273967        0.8929103388
S             0.3060277978        0.5195278475        0.4109836913
S             0.5502282688        0.4802649154        0.9107240132
S             0.0683046291        0.0269086551        0.7190314162
S             0.8222821583        0.9677296483        0.2098274031
S             0.4316613090        0.4689334943        0.7153227571
S             0.0543443159        0.4856726519        0.9161328532
End final coordinates

     Writing output data file /nfs/hpc/share/gantzlen/NiPyC2_relax_sc211_meta_functionalized_SH_pbesol_relax_frozen_parent_atoms.save/

     General routines

     Parallel routines

   This run was terminated on:  22:56: 0   5Jul2020

   JOB DONE.
QE finished Sun Jul 5 22:56:00 PDT 2020