     Program PWSCF v.6.5 starts on 21Jun2020 at 23: 0:23

     K-points division:     npool     =       2
     R & G space division:  proc/nbgrp/npool/nimage =      16
     Reading input from QE_input_scripts/pw.NiPyC2_relax_sc211_meta_functionalized_NH2_pbesol_relax.in
Warning: card &CELL ignored
Warning: card    CELL_DYNAMICS = 'BFGS' ignored
Warning: card    CELL_DOFREE = 'XYZ' ignored
Warning: card / ignored

     Current dimensions of program PWSCF are:
     Max number of different atomic species (ntypx) = 10
     Max number of k-points (npk) =  40000
     Max angular momentum in pseudopotentials (lmaxx) =  3

     Parameters for Dispersion (Grimme-D2) Correction:
       atom      VdW radius       C_6

        C          2.744         60.710
        H          1.892          4.857
        N          2.640         42.670
        Ni         2.952        374.666
        O          2.536         24.284

     gamma-point specific algorithms are used

     Subspace diagonalization in iterative solution of the eigenvalue problem:
     a serial algorithm will be used

     bravais-lattice index     =            0
     lattice parameter (alat)  =      23.6322  a.u.
     unit-cell volume          =   10858.6228 (a.u.)^3
     number of atoms/cell      =          124
     number of atomic types    =            5
     number of electrons       =       448.00 (up: 228.00, down: 220.00)
     number of Kohn-Sham states=          274
     kinetic-energy cutoff     =     100.0000  Ry
     charge density cutoff     =     400.0000  Ry
     convergence threshold     =      1.0E-06
     mixing beta               =       0.7000
     number of iterations used =            8  local-TF  mixing
     Exchange-correlation= PBESOL
                           (   1   4  10   8   0   0   0)
     nstep                     =          200

     celldm(1)=  23.632159  celldm(2)=   0.000000  celldm(3)=   0.000000
     celldm(4)=   0.000000  celldm(5)=   0.000000  celldm(6)=   0.000000

     crystal axes: (cart. coord. in units of alat)
               a(1) = (   1.000000   0.000000   0.000000 )
               a(2) = (   0.000000   1.001423   0.000000 )
               a(3) = (  -0.018199   0.000000   0.821574 )

     reciprocal axes: (cart. coord. in units 2 pi/alat)
               b(1) = (  1.000000  0.000000  0.022152 )
               b(2) = (  0.000000  0.998579  0.000000 )
               b(3) = (  0.000000  0.000000  1.217175 )

     PseudoPot. # 1 for C  read from file:
     ./pseudo/C.pbesol-nc.UPF
     MD5 check sum: ce26087537ded160c8d400e183a8bf42
     Pseudo is Norm-conserving, Zval =  4.0
     Generated using "atomic" code by A. Dal Corso v.6.5
     Using radial grid of 1073 points,  1 beta functions with:
                l(1) =   1

     PseudoPot. # 2 for H  read from file:
     ./pseudo/H.pbesol-n-nc.UPF
     MD5 check sum: 7995ef24074557c85b430109caaacc09
     Pseudo is Norm-conserving, Zval =  1.0
     Generated using "atomic" code by A. Dal Corso v.6.5
     Using radial grid of  929 points,  0 beta functions with:

     PseudoPot. # 3 for N  read from file:
     ./pseudo/N.pbesol-nc.UPF
     MD5 check sum: e18cc5e4b8a5600c1a19b30c2cab1ca0
     Pseudo is Norm-conserving, Zval =  5.0
     Generated using "atomic" code by A. Dal Corso v.6.5
     Using radial grid of 1085 points,  1 beta functions with:
                l(1) =   1

     PseudoPot. # 4 for Ni read from file:
     ./pseudo/Ni.pbesol-n-nc.UPF
     MD5 check sum: 623411631e0c2eb7c0b2b9815547d2d9
     Pseudo is Norm-conserving + core correction, Zval = 10.0
     Generated using "atomic" code by A. Dal Corso v.6.5
     Using radial grid of 1195 points,  2 beta functions with:
                l(1) =   1
                l(2) =   2

     PseudoPot. # 5 for O  read from file:
     ./pseudo/O.pbesol-nc.UPF
     MD5 check sum: 73d10e7e91dbfcbe8a7e362101007f84
     Pseudo is Norm-conserving, Zval =  6.0
     Generated using "atomic" code by A. Dal Corso v.6.5
     Using radial grid of 1095 points,  1 beta functions with:
                l(1) =   1

     atomic species   valence    mass     pseudopotential
        C              4.00    12.01070     C ( 1.00)
        H              1.00     1.00794     H ( 1.00)
        N              5.00    14.00670     N ( 1.00)
        Ni            10.00    58.69340     Ni( 1.00)
        O              6.00    15.99940     O ( 1.00)

     Starting magnetic structure
     atomic species   magnetization
        C            0.000
        H            0.000
        N            0.000
        Ni           0.250
        O            0.000

     No symmetry found

   Cartesian axes

     site n.     atom                  positions (alat units)
         1           C   tau(   1) = (   0.2787122   0.9714307   0.4288486  )
         2           C   tau(   2) = (   0.0379730   0.0311503   0.0183277  )
         3           C   tau(   3) = (   0.3806882   0.0117868   0.4489838  )
         4           C   tau(   4) = (   0.1394042   0.9891499   0.0379124  )
         5           C   tau(   5) = (   0.4400787   0.9715829   0.5343281  )
         6           C   tau(   6) = (   0.1997920   0.0283934   0.1231482  )
         7           C   tau(   7) = (   0.1986011   0.5304580   0.4324635  )
         8           C   tau(   8) = (   0.4580372   0.4720800   0.0229252  )
         9           C   tau(   9) = (   0.2341003   0.6142040   0.4982314  )
        10           C   tau(  10) = (   0.4948422   0.3892302   0.0892369  )
        11           C   tau(  11) = (   0.2384981   0.8904717   0.4955761  )
        12           C   tau(  12) = (  -0.0008282   0.1123917   0.0856467  )
        13           C   tau(  13) = (   0.3947360   0.8906489   0.5977380  )
        14           C   tau(  14) = (   0.1557890   0.1097029   0.1871645  )
        15           C   tau(  15) = (   0.0756247   0.6098498   0.5975737  )
        16           C   tau(  16) = (   0.3367152   0.3921904   0.1884642  )
        17           C   tau(  17) = (   0.0350715   0.5258264   0.5351012  )
        18           C   tau(  18) = (   0.2948780   0.4753867   0.1254988  )
        19           C   tau(  19) = (   0.0981522   0.4849593   0.4519611  )
        20           C   tau(  20) = (   0.3569104   0.5163900   0.0416029  )
        21           C   tau(  21) = (   0.4248178   0.0994604   0.3833638  )
        22           C   tau(  22) = (   0.1639424   0.9010006   0.7933713  )
        23           C   tau(  23) = (   0.0588120   0.3950355   0.3866953  )
        24           C   tau(  24) = (   0.2984059   0.6050320   0.7961934  )
        25           C   tau(  25) = (   0.7787122   0.9714307   0.4288486  )
        26           C   tau(  26) = (   0.5379730   0.0311503   0.0183277  )
        27           C   tau(  27) = (   0.8806882   0.0117868   0.4489838  )
        28           C   tau(  28) = (   0.6394042   0.9891499   0.0379124  )
        29           C   tau(  29) = (   0.9400787   0.9715829   0.5343281  )
        30           C   tau(  30) = (   0.6997920   0.0283934   0.1231482  )
        31           C   tau(  31) = (   0.6986021   0.5304580   0.4324635  )
        32           C   tau(  32) = (   0.9580382   0.4720800   0.0229252  )
        33           C   tau(  33) = (   0.7341003   0.6142040   0.4982314  )
        34           C   tau(  34) = (   0.9948422   0.3892302   0.0892369  )
        35           C   tau(  35) = (   0.7384981   0.8904717   0.4955761  )
        36           C   tau(  36) = (   0.4991718   0.1123917   0.0856467  )
        37           C   tau(  37) = (   0.8947360   0.8906489   0.5977380  )
        38           C   tau(  38) = (   0.6557880   0.1097029   0.1871645  )
        39           C   tau(  39) = (   0.5756247   0.6098498   0.5975737  )
        40           C   tau(  40) = (   0.8367152   0.3921904   0.1884642  )
        41           C   tau(  41) = (   0.5350715   0.5258264   0.5351012  )
        42           C   tau(  42) = (   0.7948780   0.4753867   0.1254988  )
        43           C   tau(  43) = (   0.5981522   0.4849593   0.4519611  )
        44           C   tau(  44) = (   0.8569104   0.5163900   0.0416029  )
        45           C   tau(  45) = (   0.9248178   0.0994604   0.3833638  )
        46           C   tau(  46) = (   0.6639424   0.9010006   0.7933713  )
        47           C   tau(  47) = (   0.5588110   0.3950355   0.3866953  )
        48           C   tau(  48) = (   0.7984059   0.6050320   0.7961934  )
        49           H   tau(  49) = (  -0.0086584   0.5011092   0.7809458  )
        50           H   tau(  50) = (   0.3118554   0.6514319   0.4868937  )
        51           H   tau(  51) = (   0.0732386   0.3533532   0.0780726  )
        52           H   tau(  52) = (   0.1594426   0.8563401   0.4835457  )
        53           H   tau(  53) = (   0.4206861   0.1479423   0.0738480  )
        54           H   tau(  54) = (   0.4386511   0.8563902   0.6644572  )
        55           H   tau(  55) = (   0.2006191   0.1433067   0.2536997  )
        56           H   tau(  56) = (   0.0290492   0.6438591   0.6626884  )
        57           H   tau(  57) = (   0.2907535   0.3580349   0.2539083  )
        58           H   tau(  58) = (   0.4564147   0.4939330   0.5533319  )
        59           H   tau(  59) = (   0.2157623   0.5059201   0.1439924  )
        60           H   tau(  60) = (   0.7290596   1.0009978   0.3640502  )
[...]
       110           O   tau( 110) = (   0.3551690   0.6519036   0.7240468  )
       111           O   tau( 111) = (   0.3707656   0.1477170   0.3098797  )
       112           O   tau( 112) = (   0.1091506   0.8535652   0.7199135  )
       113           O   tau( 113) = (   0.4642788   0.3566669   0.3968154  )
       114           O   tau( 114) = (   0.2033039   0.6423280   0.8050417  )
       115           O   tau( 115) = (   0.0200847   0.1353504   0.3952413  )
       116           O   tau( 116) = (   0.2588616   0.8639860   0.8046490  )
       117           O   tau( 117) = (   0.6158110   0.3481839   0.3145586  )
       118           O   tau( 118) = (   0.8551690   0.6519036   0.7240468  )
       119           O   tau( 119) = (   0.8707656   0.1477170   0.3098797  )
       120           O   tau( 120) = (   0.6091506   0.8535652   0.7199135  )
       121           O   tau( 121) = (   0.9642788   0.3566669   0.3968154  )
       122           O   tau( 122) = (   0.7033039   0.6423280   0.8050417  )
       123           O   tau( 123) = (   0.5200847   0.1353504   0.3952413  )
       124           O   tau( 124) = (   0.7588616   0.8639860   0.8046490  )

     number of k points=     1  Marzari-Vanderbilt smearing, width (Ry)=  0.2000
                       cart. coord. in units 2pi/alat
        k(    1) = (   0.0000000   0.0000000   0.0000000), wk =   1.0000000

     Check: negative core charge=   -0.000145

     Initial potential from superposition of free atoms

     starting charge  447.99655, renormalised to  448.00000
     Starting wfcs are  396 randomized atomic wfcs

     Self-consistent Calculation

     iteration #  1     ecut=   100.00 Ry     beta= 0.70
     Davidson diagonalization with overlap
     ethr =  1.00E-02,  avg # of iterations =  4.0

[...]
     atom:   52    charge:    0.2981    magn:   -0.0001    constr:    0.0000
     atom:   53    charge:    0.3347    magn:   -0.0005    constr:    0.0000
     atom:   54    charge:    0.1704    magn:    0.0002    constr:    0.0000
     atom:   55    charge:    0.1389    magn:    0.0004    constr:    0.0000
     atom:   56    charge:    0.4182    magn:   -0.0011    constr:    0.0000
     atom:   57    charge:    0.1830    magn:    0.0001    constr:    0.0000
     atom:   58    charge:    0.0895    magn:    0.0001    constr:    0.0000
     atom:   59    charge:    0.2086    magn:   -0.0004    constr:    0.0000
     atom:   60    charge:    0.4498    magn:   -0.0013    constr:    0.0000
[...]
     atom:  110    charge:    3.2579    magn:    0.0505    constr:    0.0000
     atom:  111    charge:    3.2128    magn:    0.0419    constr:    0.0000
     atom:  112    charge:    3.2651    magn:    0.0491    constr:    0.0000
     atom:  113    charge:    3.1371    magn:    0.0487    constr:    0.0000
     atom:  114    charge:    3.2149    magn:    0.0567    constr:    0.0000
     atom:  115    charge:    3.1867    magn:    0.0439    constr:    0.0000
     atom:  116    charge:    3.2431    magn:    0.0455    constr:    0.0000
     atom:  117    charge:    3.2240    magn:    0.0427    constr:    0.0000
     atom:  118    charge:    3.1858    magn:    0.0532    constr:    0.0000
     atom:  119    charge:    3.0398    magn:    0.0496    constr:    0.0000
     atom:  120    charge:    3.2372    magn:    0.0504    constr:    0.0000
     atom:  121    charge:    3.1318    magn:    0.0452    constr:    0.0000
     atom:  122    charge:    3.2314    magn:    0.0480    constr:    0.0000
     atom:  123    charge:    3.2468    magn:    0.0524    constr:    0.0000
     atom:  124    charge:    3.2544    magn:    0.0560    constr:    0.0000

     End of self-consistent calculation

 ------ SPIN UP ------------

[...]

 ------ SPIN DOWN ----------

          k = 0.0000 0.0000 0.0000 ( 91663 PWs)   bands (ev):

   -21.5029 -21.4891 -21.4685 -21.4421 -21.3895 -21.3672 -21.3286 -21.3121
   -18.8130 -18.7978 -18.7747 -18.7566 -18.7221 -18.6904 -18.6667 -18.6616
   -18.5613 -18.5458 -18.5266 -18.5130 -18.4902 -18.4634 -18.4597 -18.4362
   -17.8698 -17.8364 -17.8253 -17.7957 -17.7788 -17.7561 -17.7272 -17.6711
   -14.5259 -14.5180 -14.4991 -14.4585 -14.4525 -14.4396 -14.4188 -14.3933
   -13.2222 -13.1656 -13.1067 -13.0510 -13.0359 -13.0176 -13.0028 -12.9836
   -11.2528 -11.1403 -11.1331 -11.1077 -11.0743 -11.0508 -11.0329 -11.0214
   -10.4047 -10.3684 -10.3560 -10.3085 -10.2630 -10.2350 -10.2162 -10.1817
    -9.1860  -8.9622  -8.9290  -8.8757  -8.8186  -8.7094  -8.6311  -8.5571
    -8.2993  -8.2562  -8.1880  -8.1373  -8.1023  -8.0698  -8.0372  -8.0228
    -7.4549  -7.3793  -7.3399  -7.2926  -7.2140  -7.1831  -7.1698  -7.1302
    -7.1117  -6.9133  -6.8093  -6.7879  -6.7078  -6.6106  -6.5313  -6.5241
    -6.2782  -6.2519  -6.2106  -6.1604  -6.1034  -6.0941  -6.0432  -5.9829
    -5.9282  -5.8555  -5.8193  -5.8000  -5.7686  -5.7190  -5.6724  -5.6466
    -5.6359  -5.6024  -5.5723  -5.5377  -5.4733  -5.4131  -5.3949  -5.3856
    -5.3710  -5.3464  -5.3413  -5.2942  -5.2573  -5.2494  -5.2118  -5.1828
    -5.1570  -5.1230  -5.0160  -4.9685  -4.9623  -4.9015  -4.8550  -4.8002
    -4.7670  -4.7217  -4.6997  -4.6749  -4.6391  -4.6366  -4.4676  -4.2864
    -3.9304  -3.7661  -3.6906  -3.6588  -3.6384  -3.5957  -3.5427  -3.5347
    -3.4684  -3.4228  -3.4194  -3.3984  -3.3574  -3.3080  -3.2505  -3.2285
    -3.1844  -3.1223  -3.1131  -3.0312  -2.8302  -2.7981  -2.7416  -2.6599
    -2.6366  -2.4563  -2.4385  -2.2833  -2.2198  -2.0666  -2.0334  -1.9509
    -1.9112  -1.8926  -1.8536  -1.8248  -1.8000  -1.7809  -1.7574  -1.7416
    -1.7097  -1.6431  -1.5836  -1.5441  -1.4925  -1.4718  -1.4556  -1.4337
    -1.3858  -1.3625  -1.2928  -1.2719  -1.2507  -1.2269  -1.1288  -1.0754
    -0.5417  -0.4260  -0.4172  -0.3621  -0.2912  -0.2721  -0.2628  -0.2573
    -0.2503  -0.2232  -0.2079  -0.1764   0.0353   0.0759   0.1111   0.1665
     0.1762   0.2024   0.2310   0.3110   1.3430   1.4324   1.4556   1.5142
     1.6665   1.7810   1.7979   1.8276   2.7492   2.7778   2.8229   2.8671
     2.9276   2.9549   2.9775   2.9858   4.0593   4.0723   4.2155   4.2729
     4.2942   4.3507   4.3744   4.4709   4.5225   4.7424   4.8833   5.0008
     5.1975   5.2362   5.3165   5.3449   5.3588   5.4027   5.4307   5.5073
     5.5809   5.7910   5.8429   5.9025   5.9323   6.1356   6.3496   6.3768
     6.4017   6.5191   6.6641   6.7868   6.9572   7.0925   7.2177   7.2844
     7.3394   7.3795

     the spin up/dw Fermi energies are     1.3451    0.9735 ev

!    total energy              =   -1791.35851110 Ry
     Harris-Foulkes estimate   =   -1791.35851110 Ry
     estimated scf accuracy    <          9.7E-09 Ry

     The total energy is the sum of the following terms:

     one-electron contribution =   -2575.92926104 Ry
     hartree contribution      =    1454.01969581 Ry
     xc contribution           =    -540.20633451 Ry
     ewald contribution        =    -131.20110171 Ry
     Dispersion Correction     =      -0.56641719 Ry
     smearing contrib. (-TS)   =       2.52490755 Ry

     total magnetization       =     8.00 Bohr mag/cell
     absolute magnetization    =     8.28 Bohr mag/cell

     convergence has been achieved in  10 iterations

     Forces acting on atoms (cartesian axes, Ry/au):

     atom    1 type  1   force =    -0.00034719   -0.00024614    0.00001616
     atom    2 type  1   force =     0.00006247    0.00016129   -0.00010667
     atom    3 type  1   force =    -0.00014467   -0.00007837   -0.00045086
     atom    4 type  1   force =     0.00017779   -0.00010353    0.00007166
     atom    5 type  1   force =    -0.00008088    0.00003923    0.00079918
     atom    6 type  1   force =     0.00032055   -0.00030195   -0.00006439
     atom    7 type  1   force =    -0.00004906    0.00055163   -0.00016830
     atom    8 type  1   force =    -0.00003248    0.00005012    0.00006937
     atom    9 type  1   force =    -0.00004882   -0.00012696   -0.00015891
     atom   10 type  1   force =     0.00000025    0.00018389   -0.00008639
     atom   11 type  1   force =     0.00008121   -0.00001282    0.00021259
     atom   12 type  1   force =    -0.00012756   -0.00009132    0.00040688
     atom   13 type  1   force =     0.00063469   -0.00038308   -0.00025653
     atom   14 type  1   force =     0.00003862    0.00049184    0.00028404
     atom   15 type  1   force =    -0.00025432   -0.00023392   -0.00030324
     atom   16 type  1   force =     0.00006379   -0.00000926   -0.00015915
     atom   17 type  1   force =    -0.00016393   -0.00013532    0.00007781
     atom   18 type  1   force =     0.00022857    0.00030384    0.00024910
     atom   19 type  1   force =     0.00011244    0.00031999   -0.00004304
     atom   20 type  1   force =     0.00017697    0.00002179    0.00021510
     atom   21 type  1   force =     0.00016097   -0.00066457    0.00003790
     atom   22 type  1   force =     0.00002254   -0.00048694   -0.00046865
     atom   23 type  1   force =     0.00032311    0.00022027    0.00017875
     atom   24 type  1   force =    -0.00038855    0.00024080    0.00017222
     atom   25 type  1   force =     0.00005475    0.00006759   -0.00016595
     atom   26 type  1   force =     0.00035337    0.00028637    0.00033441
     atom   27 type  1   force =     0.00011146   -0.00047469    0.00021594
     atom   28 type  1   force =     0.00010938   -0.00013446    0.00013895
     atom   29 type  1   force =     0.00025394    0.00011457   -0.00035137
     atom   30 type  1   force =     0.00000008   -0.00023815   -0.00015417
     atom   31 type  1   force =    -0.00048343   -0.00020882    0.00053938
     atom   32 type  1   force =    -0.00018682   -0.00009657   -0.00022499
     atom   33 type  1   force =     0.00029478    0.00039556    0.00030504
     atom   34 type  1   force =     0.00034041   -0.00041808    0.00032322
     atom   35 type  1   force =    -0.00045303   -0.00044262   -0.00001230
     atom   36 type  1   force =     0.00035398   -0.00027769   -0.00010407
     atom   37 type  1   force =    -0.00010484   -0.00006892    0.00035209
     atom   38 type  1   force =    -0.00016313    0.00029724    0.00006369
     atom   39 type  1   force =    -0.00000798    0.00028552   -0.00042983
     atom   40 type  1   force =    -0.00008648   -0.00014000    0.00010817
     atom   41 type  1   force =    -0.00020265   -0.00041459   -0.00026486
     atom   42 type  1   force =    -0.00029512    0.00044206   -0.00024814
     atom   43 type  1   force =    -0.00022913    0.00024978   -0.00011296
     atom   44 type  1   force =     0.00033405   -0.00022041    0.00016304
     atom   45 type  1   force =     0.00046167   -0.00011943    0.00017263
     atom   46 type  1   force =     0.00019095    0.00042610    0.00002268
     atom   47 type  1   force =     0.00028918   -0.00015452    0.00025670
     atom   48 type  1   force =    -0.00004898   -0.00001564   -0.00010453
     atom   49 type  2   force =     0.00002074   -0.00010527   -0.00015823
     atom   50 type  2   force =    -0.00051689    0.00006966   -0.00028711
     atom   51 type  2   force =    -0.00025054    0.00005182   -0.00003585
     atom   52 type  2   force =    -0.00008482   -0.00008576   -0.00043614
     atom   53 type  2   force =     0.00025055   -0.00006541    0.00005058
     atom   54 type  2   force =     0.00033810    0.00039876    0.00001175
     atom   55 type  2   force =    -0.00024513    0.00004750    0.00018369
     atom   56 type  2   force =     0.00032155   -0.00024354   -0.00027315
     atom   57 type  2   force =    -0.00015095    0.00025538   -0.00020761
     atom   58 type  2   force =     0.00030016    0.00023994    0.00000411
     atom   59 type  2   force =    -0.00018582   -0.00021554   -0.00005914
     atom   60 type  2   force =    -0.00013334   -0.00038184   -0.00012619
[...]
     atom  110 type  5   force =    -0.00047282    0.00025036   -0.00024033
     atom  111 type  5   force =     0.00007694    0.00021875   -0.00011919
     atom  112 type  5   force =    -0.00045746   -0.00035059   -0.00022780
     atom  113 type  5   force =    -0.00048573   -0.00004836    0.00020575
     atom  114 type  5   force =     0.00022444   -0.00028227    0.00022742
     atom  115 type  5   force =    -0.00022563    0.00035408   -0.00035243
     atom  116 type  5   force =    -0.00040004    0.00053194    0.00029300
     atom  117 type  5   force =    -0.00007921    0.00058565    0.00049993
     atom  118 type  5   force =     0.00032534   -0.00003899    0.00025599
     atom  119 type  5   force =    -0.00010428    0.00003496   -0.00001360
     atom  120 type  5   force =    -0.00012657   -0.00002055   -0.00048078
     atom  121 type  5   force =     0.00012815    0.00035267    0.00006928
     atom  122 type  5   force =     0.00003337   -0.00012381    0.00007589
     atom  123 type  5   force =    -0.00000266   -0.00017849   -0.00040954
     atom  124 type  5   force =    -0.00000205   -0.00010732    0.00027537

     Total force =     0.005656     Total SCF correction =     0.000198

     bfgs converged in  99 scf cycles and  98 bfgs steps
     (criteria: energy <  1.0E-04 Ry, force <  1.0E-03 Ry/Bohr)

     End of BFGS Geometry Optimization

     Final energy   =   -1791.3585110981 Ry
Begin final coordinates

ATOMIC_POSITIONS (crystal)
C             0.2810538451        0.9775939940        0.5371645666
C             0.0265400893        0.0133335216        0.0374273979
C             0.3924994751        0.0042119489        0.5398857820
C             0.1344467716        0.9852595235        0.0433327186
C             0.4581036928        0.9440738012        0.6226790304
C             0.2020448101        0.0431845293        0.1321162603
C             0.2164989007        0.5306616607        0.5335547698
C             0.4613073322        0.4643028875        0.0236109001
C             0.2483872070        0.6156377007        0.6175543904
C             0.4969908408        0.3793081353        0.1058927889
C             0.2431836526        0.8951876917        0.6201549577
C            -0.0123000970        0.0950368432        0.1165893617
C             0.4143539921        0.8649242423        0.7018983843
C             0.1575761310        0.1300800353        0.2017622031
C             0.0865935572        0.6094357440        0.7245198796
C             0.3315335008        0.3686655804        0.2012910101
C             0.0497574739        0.5258975951        0.6447053033
C             0.2908156300        0.4531500526        0.1261369428
C             0.1133198479        0.4838394066        0.5477144100
C             0.3553341549        0.5050059356        0.0375498604
C             0.4348252387        0.0938428420        0.4641456626
C             0.1773461609        0.8980936442        0.9652406590
C             0.0755446052        0.3948619586        0.4658808413
C             0.3159635351        0.5985431759        0.9648725755
C             0.7831859424        0.9774881104        0.5239904732
C             0.5460457054        0.0405250655        0.0175364244
C             0.8823165986        0.0249253262        0.5488759551
C             0.6463426204        0.9897155301        0.0444679794
C             0.9439801111        0.9834234638        0.6564549458
C             0.7048872179        0.0260906592        0.1523108977
C             0.7180553397        0.5083318848        0.5519846343
C             0.9670316709        0.4844798664        0.0322360143
C             0.7561172574        0.5946547658        0.6310360056
C             1.0050217776        0.3997932950        0.1093231433
C             0.7479274976        0.8928209681        0.6010790466
C             0.5113067226        0.1232007345        0.1011774821
C             0.9031949018        0.8959236744        0.7289781077
C             0.6637532608        0.1060791711        0.2324327851
C             0.5834553707        0.6347098831        0.6927336519
C             0.8410731189        0.3800126263        0.2079805244
C             0.5398132902        0.5521389667        0.6167419817
C             0.7982915634        0.4697335104        0.1395118641
C             0.6053668034        0.4877047260        0.5425555786
C             0.8627920957        0.5217328571        0.0453030123
C             0.9240835777        0.1107725718        0.4669566043
C             0.6855759077        0.9017366596        0.9642127229
C             0.5626544113        0.3990330615        0.4633860260
C             0.8204830847        0.6100239236        0.9659296988
H             0.0209102664        0.5220566712        0.9645254495
H             0.3266987466        0.6527560586        0.6079702734
H             0.0862123160        0.3698787302        0.1023185567
H             0.1586589104        0.8741122566        0.6191518445
H             0.4357002755        0.1636509563        0.0805416571
H             0.4634777060        0.8196029271        0.7704871132
H             0.2088854855        0.1803191506        0.2629885159
H             0.0378861299        0.6423669334        0.8010846439
H             0.2825264010        0.3266458817        0.2705608023
H             0.4543497575        0.5367077098        0.6210148013
H             0.2095264624        0.4804063299        0.1407581813
H             0.7315316065        1.0053377354        0.4447845562
[...]
O             0.3736726310        0.6497403024        0.8823603668
O             0.3776551686        0.1412796963        0.3727244366
O             0.1219669408        0.8526217770        0.8735895630
O             0.4677845866        0.3629658109        0.4742201514
O             0.2213391224        0.6356671168        0.9790184288
O             0.0233188311        0.1400576643        0.4768112936
O             0.2736863454        0.8625975215        0.9811078326
O             0.6201850746        0.3510144076        0.3765825866
O             0.8763256827        0.6600100112        0.8819284824
O             0.8685956406        0.1607337694        0.3802381620
O             0.6269674990        0.8559239911        0.8749328096
O             0.9790346153        0.3603329872        0.4742852431
O             0.7225237109        0.6420070951        0.9740258696
O             0.5282743293        0.1321697187        0.4823765977
O             0.7805214318        0.8644431573        0.9777726139
End final coordinates

     Writing output data file ./QE_relaxation_results/pbesol_relax/NiPyC2_relax_sc211_meta_functionalized_NH2_pbesol_relax.save/

     General routines

     Parallel routines

   This run was terminated on:   2:29:57  23Jun2020

   JOB DONE.
QE finished Tue Jun 23 02:29:57 PDT 2020