     Program PWSCF v.6.5 starts on  9Jun2020 at 10:21:33

     K-points division:     npool     =       2
     R & G space division:  proc/nbgrp/npool/nimage =      16
     Reading input from QE_input_scripts/pw.NiPyC2_pbesol-relax.in
Warning: card &CELL ignored
Warning: card    CELL_DYNAMICS = 'BFGS' ignored
Warning: card    CELL_DOFREE = 'XYZ' ignored
Warning: card / ignored

     Current dimensions of program PWSCF are:
     Max number of different atomic species (ntypx) = 10
     Max number of k-points (npk) =  40000
     Max angular momentum in pseudopotentials (lmaxx) =  3

     Parameters for Dispersion (Grimme-D2) Correction:
       atom      VdW radius       C_6

        C          2.744         60.710
        H          1.892          4.857
        N          2.640         42.670
        Ni         2.952        374.666
        O          2.536         24.284

     gamma-point specific algorithms are used

     Subspace diagonalization in iterative solution of the eigenvalue problem:
     a serial algorithm will be used

     Message from routine setup:
     using ibrav=0 with symmetry is DISCOURAGED, use correct ibrav instead

     bravais-lattice index     =            0
     lattice parameter (alat)  =      11.8161  a.u.
     unit-cell volume          =    5429.3114 (a.u.)^3
     number of atoms/cell      =           54
     number of atomic types    =            5
     number of electrons       =       200.00 (up: 102.00, down:  98.00)
     number of Kohn-Sham states=          122
     kinetic-energy cutoff     =     100.0000  Ry
     charge density cutoff     =     400.0000  Ry
     convergence threshold     =      1.0E-06
     mixing beta               =       0.7000
     number of iterations used =            8  local-TF  mixing
     Exchange-correlation= PBESOL
                           (   1   4  10   8   0   0   0)
     nstep                     =          200

     celldm(1)=  11.816080  celldm(2)=   0.000000  celldm(3)=   0.000000
     celldm(4)=   0.000000  celldm(5)=   0.000000  celldm(6)=   0.000000

     crystal axes: (cart. coord. in units of alat)
               a(1) = (   1.000000   0.000000   0.000000 )
               a(2) = (   0.000000   2.002847   0.000000 )
               a(3) = (  -0.036399   0.000000   1.643149 )

     reciprocal axes: (cart. coord. in units 2 pi/alat)
               b(1) = (  1.000000  0.000000  0.022152 )
               b(2) = (  0.000000  0.499289  0.000000 )
               b(3) = (  0.000000  0.000000  0.608588 )

     PseudoPot. # 1 for C  read from file:
     ./pseudo/C.pbesol-nc.UPF
     MD5 check sum: ce26087537ded160c8d400e183a8bf42
     Pseudo is Norm-conserving, Zval =  4.0
     Generated using "atomic" code by A. Dal Corso v.6.5
     Using radial grid of 1073 points,  1 beta functions with:
                l(1) =   1

     PseudoPot. # 2 for H  read from file:
     ./pseudo/H.pbesol-n-nc.UPF
     MD5 check sum: 7995ef24074557c85b430109caaacc09
     Pseudo is Norm-conserving, Zval =  1.0
     Generated using "atomic" code by A. Dal Corso v.6.5
     Using radial grid of  929 points,  0 beta functions with:

     PseudoPot. # 3 for N  read from file:
     ./pseudo/N.pbesol-nc.UPF
     MD5 check sum: e18cc5e4b8a5600c1a19b30c2cab1ca0
     Pseudo is Norm-conserving, Zval =  5.0
     Generated using "atomic" code by A. Dal Corso v.6.5
     Using radial grid of 1085 points,  1 beta functions with:
                l(1) =   1

     PseudoPot. # 4 for Ni read from file:
     ./pseudo/Ni.pbesol-n-nc.UPF
     MD5 check sum: 623411631e0c2eb7c0b2b9815547d2d9
     Pseudo is Norm-conserving + core correction, Zval = 10.0
     Generated using "atomic" code by A. Dal Corso v.6.5
     Using radial grid of 1195 points,  2 beta functions with:
                l(1) =   1
                l(2) =   2

     PseudoPot. # 5 for O  read from file:
     ./pseudo/O.pbesol-nc.UPF
     MD5 check sum: 73d10e7e91dbfcbe8a7e362101007f84
     Pseudo is Norm-conserving, Zval =  6.0
     Generated using "atomic" code by A. Dal Corso v.6.5
     Using radial grid of 1095 points,  1 beta functions with:
                l(1) =   1

     atomic species   valence    mass     pseudopotential
        C              4.00    12.01070     C ( 1.00)
        H              1.00     1.00794     H ( 1.00)
        N              5.00    14.00670     N ( 1.00)
        Ni            10.00    58.69340     Ni( 1.00)
        O              6.00    15.99940     O ( 1.00)

     Starting magnetic structure
     atomic species   magnetization
        C            0.000
        H            0.000
        N            0.000
        Ni           0.250
        O            0.000

      2 Sym. Ops. (no inversion) found ( 1 have fractional translation)

   Cartesian axes

     site n.     atom                  positions (alat units)
         1           C   tau(   1) = (   0.5691129   1.9213309   0.8435924  )
         2           C   tau(   2) = (   0.7737740   1.9988410   0.8769484  )
         3           C   tau(   3) = (   0.8939722   1.9119175   1.0440566  )
         4           C   tau(   4) = (   0.3878954   1.0396777   0.8940371  )
         5           C   tau(   5) = (   0.4576709   1.2081171   1.0215454  )
         6           C   tau(   6) = (   0.4898428   1.7643077   0.9776734  )
         7           C   tau(   7) = (   0.8025222   1.7578986   1.1727151  )
         8           C   tau(   8) = (   0.1377615   1.2107208   1.2070569  )
         9           C   tau(   9) = (   0.0584822   1.0420812   1.0887502  )
        10           C   tau(  10) = (   0.1873493   0.9553579   0.9277216  )
        11           C   tau(  11) = (   0.8614386   0.1788542   0.7476326  )
        12           C   tau(  12) = (   0.1044740   0.7734994   0.7911760  )
        13           C   tau(  13) = (   0.0873123   0.0815159   0.0220182  )
        14           C   tau(  14) = (   0.2919734   0.0040057   0.0553741  )
        15           C   tau(  15) = (   0.4121716   0.0909292   0.2224823  )
        16           C   tau(  16) = (   0.9060948   0.9631690   0.0724628  )
        17           C   tau(  17) = (   0.9758703   0.7947296   0.1999712  )
        18           C   tau(  18) = (   0.0080421   0.2385390   0.1560991  )
        19           C   tau(  19) = (   0.3207216   0.2449482   0.3511408  )
        20           C   tau(  20) = (   0.6559609   0.7921259   0.3854826  )
        21           C   tau(  21) = (   0.5766816   0.9607656   0.2671759  )
        22           C   tau(  22) = (   0.7055486   1.0474888   0.1061474  )
        23           C   tau(  23) = (   0.3432392   1.8239925   1.5692068  )
        24           C   tau(  24) = (   0.5862746   1.2293473   1.6127503  )
        25           H   tau(  25) = (   0.4840353   1.9752074   0.7297223  )
        26           H   tau(  26) = (   0.0365226   1.9583835   1.0688681  )
        27           H   tau(  27) = (   0.4777087   0.9833977   0.7850964  )
        28           H   tau(  28) = (   0.5969732   1.2643971   0.9988700  )
        29           H   tau(  29) = (   0.3510215   1.7084283   0.9515473  )
        30           H   tau(  30) = (   0.8848144   1.6990149   1.2859280  )
        31           H   tau(  31) = (   0.0501555   1.2710065   1.3156690  )
        32           H   tau(  32) = (   0.9198816   0.9864020   1.1158622  )
        33           H   tau(  33) = (  -0.0341640   0.0276393   1.5512965  )
        34           H   tau(  34) = (   0.5547220   0.0444632   0.2472939  )
        35           H   tau(  35) = (   0.9595093   1.0194490   1.6066706  )
        36           H   tau(  36) = (   0.1151726   0.7384496   0.1772957  )
        37           H   tau(  37) = (   0.8692209   0.2944185   0.1299730  )
        38           H   tau(  38) = (   0.4030137   0.3038318   0.4643538  )
        39           H   tau(  39) = (   0.5683549   0.7318402   0.4940948  )
        40           H   tau(  40) = (   0.4380810   1.0164447   0.2942879  )
        41           N   tau(  41) = (   0.6025592   1.6881995   1.1439600  )
        42           N   tau(  42) = (   0.3350713   1.2940393   1.1750155  )
        43           N   tau(  43) = (   0.1207586   0.3146472   0.3223857  )
        44           N   tau(  44) = (   0.8532706   0.7088075   0.3534412  )
        45           Ni  tau(  45) = (   0.4642458   1.5100663   1.3793082  )
        46           Ni  tau(  46) = (   0.9824452   0.4927804   0.5577339  )
        47           O   tau(  47) = (   0.2269989   0.7002353   0.6455930  )
        48           O   tau(  48) = (   0.7414252   0.2665388   0.6082936  )
        49           O   tau(  49) = (   0.9187989   0.7054627   0.8171378  )
        50           O   tau(  50) = (   0.0492397   0.2399410   0.7791810  )
        51           O   tau(  51) = (   0.7087996   1.3026115   1.4671673  )
        52           O   tau(  52) = (   0.2232258   1.7363079   1.4298678  )
        53           O   tau(  53) = (   0.4005995   1.2973840   1.6387120  )
        54           O   tau(  54) = (   0.5310404   1.7629057   1.6007553  )

     number of k points=     1  Marzari-Vanderbilt smearing, width (Ry)=  0.2000
                       cart. coord. in units 2pi/alat
        k(    1) = (   0.0000000   0.0000000   0.0000000), wk =   1.0000000

     Check: negative core charge=   -0.000145

     Initial potential from superposition of free atoms

     starting charge  199.99835, renormalised to  200.00000
     Starting wfcs are  178 randomized atomic wfcs

     Self-consistent Calculation

     iteration #  1     ecut=   100.00 Ry     beta= 0.70
     Davidson diagonalization with overlap
     ethr =  1.00E-02,  avg # of iterations =  4.0

     total energy              =    -808.50808890 Ry
     Harris-Foulkes estimate   =    -813.53940304 Ry
     estimated scf accuracy    <      13.16513744 Ry

     total magnetization       =     4.00 Bohr mag/cell
     absolute magnetization    =     4.57 Bohr mag/cell

[...]

     Magnetic moment per site:
     atom:    1    charge:    0.5996    magn:    0.0036    constr:    0.0000
     atom:    2    charge:    0.5739    magn:    0.0039    constr:    0.0000
     atom:    3    charge:    0.5986    magn:    0.0038    constr:    0.0000
     atom:    4    charge:    0.5997    magn:    0.0036    constr:    0.0000
     atom:    5    charge:    0.5922    magn:    0.0032    constr:    0.0000
     atom:    6    charge:    0.5928    magn:    0.0033    constr:    0.0000
     atom:    7    charge:    0.5943    magn:    0.0032    constr:    0.0000
     atom:    8    charge:    0.5913    magn:    0.0033    constr:    0.0000
     atom:    9    charge:    0.5983    magn:    0.0036    constr:    0.0000
     atom:   10    charge:    0.5741    magn:    0.0038    constr:    0.0000
     atom:   11    charge:    0.5593    magn:   -0.0013    constr:    0.0000
     atom:   12    charge:    0.5593    magn:   -0.0012    constr:    0.0000
     atom:   13    charge:    0.5996    magn:    0.0036    constr:    0.0000
     atom:   14    charge:    0.5739    magn:    0.0039    constr:    0.0000
     atom:   15    charge:    0.5986    magn:    0.0038    constr:    0.0000
     atom:   16    charge:    0.5997    magn:    0.0036    constr:    0.0000
[...]
H             1.0159182185        0.5016286934        0.9507521078
H             0.1466769589        0.3517143315        0.0925669940
H             0.8427320188        0.1449591283        0.0890171700
H             0.4099693345        0.1424186683        0.3088314620
H             0.5916255262        0.3570317631        0.3084130314
H             0.4376577598        0.5065014538        0.1764365657
N             0.6199363040        0.8520585477        0.7047578539
N             0.3751901383        0.6498634469        0.7061709337
N             0.1199363040        0.1479414523        0.2047578539
N             0.8751901383        0.3501365531        0.2061709337
Ni            0.4997497134        0.7520158229        0.8350511879
Ni            0.9997497134        0.2479841771        0.3350511879
O             0.2439130270        0.3488091049        0.3815369187
O             0.7547763607        0.1481802485        0.3753905229
O             0.9440630387        0.3564493324        0.4807934274
O             0.0569604534        0.1366353649        0.4793857074
O             0.7439130270        0.6511908951        0.8815369187
O             0.2547763607        0.8518197515        0.8753905229
O             0.4440630387        0.6435506676        0.9807934274
O             0.5569604534        0.8633646351        0.9793857074

     Writing output data file ./QE_relaxation_results/PBESOL_relax/NiPyC2_relax/NiPyC2_pbesol_relax.save/
     NEW-OLD atomic charge density approx. for the potential

     Check: negative core charge=   -0.000145

     Self-consistent Calculation

[...]

     Threshold (ethr) on eigenvalues was too large:
     Diagonalizing with lowered threshold

     Davidson diagonalization with overlap
     ethr =  8.13E-08,  avg # of iterations =  2.0

[...]

     total energy              =    -811.25503010 Ry
     Harris-Foulkes estimate   =    -811.25503011 Ry
     estimated scf accuracy    <       0.00000002 Ry

[...]

     iteration #  9     ecut=   100.00 Ry     beta= 0.70
     Davidson diagonalization with overlap
     ethr =  1.13E-11,  avg # of iterations =  2.5

     Magnetic moment per site:
     atom:    1    charge:    0.5255    magn:    0.0050    constr:    0.0000
     atom:    2    charge:    0.5001    magn:    0.0038    constr:    0.0000
     atom:    3    charge:    0.4746    magn:    0.0054    constr:    0.0000
     atom:    4    charge:    0.5350    magn:    0.0045    constr:    0.0000
     atom:    5    charge:    0.5331    magn:    0.0037    constr:    0.0000
     atom:    6    charge:    0.5347    magn:    0.0043    constr:    0.0000
     atom:    7    charge:    0.4994    magn:    0.0046    constr:    0.0000
     atom:    8    charge:    0.5590    magn:    0.0038    constr:    0.0000
     atom:    9    charge:    0.5567    magn:    0.0044    constr:    0.0000
     atom:   10    charge:    0.5483    magn:    0.0034    constr:    0.0000
     atom:   11    charge:    0.5048    magn:   -0.0015    constr:    0.0000
     atom:   12    charge:    0.5328    magn:   -0.0016    constr:    0.0000
     atom:   13    charge:    0.5255    magn:    0.0050    constr:    0.0000
     atom:   14    charge:    0.5001    magn:    0.0038    constr:    0.0000
     atom:   15    charge:    0.4746    magn:    0.0054    constr:    0.0000
     atom:   16    charge:    0.5350    magn:    0.0045    constr:    0.0000
     atom:   17    charge:    0.5331    magn:    0.0037    constr:    0.0000
     atom:   18    charge:    0.5347    magn:    0.0043    constr:    0.0000
     atom:   19    charge:    0.4994    magn:    0.0046    constr:    0.0000
     atom:   20    charge:    0.5590    magn:    0.0038    constr:    0.0000
     atom:   21    charge:    0.5567    magn:    0.0044    constr:    0.0000
     atom:   22    charge:    0.5483    magn:    0.0034    constr:    0.0000
     atom:   23    charge:    0.5048    magn:   -0.0015    constr:    0.0000
     atom:   24    charge:    0.5328    magn:   -0.0016    constr:    0.0000
     atom:   25    charge:    0.3980    magn:   -0.0007    constr:    0.0000
     atom:   26    charge:    0.3036    magn:   -0.0004    constr:    0.0000
     atom:   27    charge:    0.4180    magn:   -0.0006    constr:    0.0000
     atom:   28    charge:    0.4407    magn:   -0.0006    constr:    0.0000
     atom:   29    charge:    0.4067    magn:   -0.0007    constr:    0.0000
     atom:   30    charge:    0.3592    magn:   -0.0001    constr:    0.0000
     atom:   31    charge:    0.3763    magn:   -0.0005    constr:    0.0000
     atom:   32    charge:    0.3808    magn:   -0.0010    constr:    0.0000
     atom:   33    charge:    0.3980    magn:   -0.0007    constr:    0.0000
     atom:   34    charge:    0.3036    magn:   -0.0004    constr:    0.0000
     atom:   35    charge:    0.4180    magn:   -0.0006    constr:    0.0000
     atom:   36    charge:    0.4407    magn:   -0.0006    constr:    0.0000
     atom:   37    charge:    0.4067    magn:   -0.0007    constr:    0.0000
     atom:   38    charge:    0.3592    magn:   -0.0001    constr:    0.0000
     atom:   39    charge:    0.3763    magn:   -0.0005    constr:    0.0000
     atom:   40    charge:    0.3808    magn:   -0.0010    constr:    0.0000
     atom:   41    charge:    2.2889    magn:    0.0153    constr:    0.0000
     atom:   42    charge:    2.3433    magn:    0.0150    constr:    0.0000
     atom:   43    charge:    2.2889    magn:    0.0153    constr:    0.0000
     atom:   44    charge:    2.3433    magn:    0.0150    constr:    0.0000
     atom:   45    charge:    7.5173    magn:    1.1474    constr:    0.0000
     atom:   46    charge:    7.5173    magn:    1.1474    constr:    0.0000
     atom:   47    charge:    3.0543    magn:    0.0609    constr:    0.0000
     atom:   48    charge:    2.8636    magn:    0.0565    constr:    0.0000
     atom:   49    charge:    2.8605    magn:    0.0591    constr:    0.0000
     atom:   50    charge:    2.7717    magn:    0.0573    constr:    0.0000
     atom:   51    charge:    3.0543    magn:    0.0609    constr:    0.0000
     atom:   52    charge:    2.8636    magn:    0.0565    constr:    0.0000
     atom:   53    charge:    2.8605    magn:    0.0591    constr:    0.0000
     atom:   54    charge:    2.7717    magn:    0.0573    constr:    0.0000

     End of self-consistent calculation

 ------ SPIN UP ------------

[...]

 ------ SPIN DOWN ----------

          k = 0.0000 0.0000 0.0000 ( 45819 PWs)   bands (ev):

   -22.4719 -22.4692 -22.3401 -22.3382 -19.4002 -19.3992 -19.3833 -19.3830
   -19.2258 -19.2105 -19.1215 -19.1140 -15.4704 -15.3982 -15.3829 -15.3608
   -14.1429 -14.1048 -14.0915 -14.0432 -11.7328 -11.5994 -11.5733 -11.5574
   -11.0184 -10.9926 -10.9761 -10.9042  -9.3562  -9.1275  -9.1150  -9.0474
    -8.2466  -7.7701  -7.6781  -7.6223  -7.4854  -7.4503  -7.4093  -7.3637
    -6.7927  -6.6397  -6.5839  -6.5415  -6.5158  -6.4913  -6.3539  -6.3248
    -6.2849  -6.2772  -6.1607  -6.1561  -6.1375  -6.0674  -6.0383  -5.8388
    -5.5834  -5.5701  -5.5274  -5.4131  -5.2461  -5.2079  -5.1368  -4.9201
    -4.5835  -4.0602  -4.0300  -3.9898  -3.9041  -3.8767  -3.7285  -3.5747
    -3.4287  -3.2974  -3.1548  -3.1200  -2.8677  -2.8240  -2.7256  -2.7210
    -2.6303  -2.4152  -2.3494  -2.3306  -2.3256  -2.2747  -2.0155  -1.9938
    -1.9046  -1.8812  -1.8564  -1.7105  -1.6867  -1.3594  -1.3482  -1.3301
    -1.3092  -1.1832   0.4763   0.4784   0.6791   0.7191   2.0083   2.0339
     2.0849   2.1278   3.0642   3.2090   3.3454   3.5267   3.5696   4.2965
     4.4695   4.5170   4.7037   4.7203   5.0391   5.3887   5.6783   5.7797
     5.9412   6.1261

     the spin up/dw Fermi energies are     0.1680   -0.1968 ev

!    total energy              =    -811.25503011 Ry
     Harris-Foulkes estimate   =    -811.25503011 Ry
     estimated scf accuracy    <          7.4E-09 Ry

     The total energy is the sum of the following terms:

     one-electron contribution =   -1219.90849550 Ry
     hartree contribution      =     680.26716086 Ry
     xc contribution           =    -246.43350586 Ry
     ewald contribution        =     -26.35017005 Ry
     Dispersion Correction     =      -0.20854798 Ry
     smearing contrib. (-TS)   =       1.37852841 Ry

     total magnetization       =     4.00 Bohr mag/cell
     absolute magnetization    =     4.13 Bohr mag/cell

     convergence has been achieved in   9 iterations

     Forces acting on atoms (cartesian axes, Ry/au):

     atom    1 type  1   force =    -0.00000780   -0.00032282   -0.00057158
     atom    2 type  1   force =     0.00062227   -0.00042466   -0.00031789
     atom    3 type  1   force =     0.00098939   -0.00043907   -0.00033012
     atom    4 type  1   force =     0.00034294   -0.00049556   -0.00036143
     atom    5 type  1   force =     0.00063550   -0.00004892    0.00002100
     atom    6 type  1   force =    -0.00065320    0.00041246   -0.00002036
     atom    7 type  1   force =     0.00037353    0.00007745   -0.00007340
     atom    8 type  1   force =    -0.00008477    0.00023422    0.00002723
     atom    9 type  1   force =    -0.00010538    0.00008384   -0.00063322
     atom   10 type  1   force =    -0.00001941   -0.00028400   -0.00024432
     atom   11 type  1   force =    -0.00038244    0.00002432    0.00023289
     atom   12 type  1   force =    -0.00070113   -0.00032506    0.00009637
     atom   13 type  1   force =    -0.00000780    0.00032282   -0.00057158
     atom   14 type  1   force =     0.00062227    0.00042466   -0.00031789
     atom   15 type  1   force =     0.00098939    0.00043907   -0.00033012
     atom   16 type  1   force =     0.00034294    0.00049556   -0.00036143
     atom   17 type  1   force =     0.00063550    0.00004892    0.00002100
     atom   18 type  1   force =    -0.00065320   -0.00041246   -0.00002036
     atom   19 type  1   force =     0.00037353   -0.00007745   -0.00007340
     atom   20 type  1   force =    -0.00008477   -0.00023422    0.00002723
     atom   21 type  1   force =    -0.00010538   -0.00008384   -0.00063322
     atom   22 type  1   force =    -0.00001941    0.00028400   -0.00024432
     atom   23 type  1   force =    -0.00038244   -0.00002432    0.00023289
     atom   24 type  1   force =    -0.00070113    0.00032506    0.00009637
     atom   25 type  2   force =     0.00011588    0.00004454    0.00094666
     atom   26 type  2   force =    -0.00030065   -0.00026700    0.00083515
     atom   27 type  2   force =     0.00040078    0.00053140   -0.00035023
     atom   28 type  2   force =     0.00031992    0.00042856    0.00021832
     atom   29 type  2   force =     0.00003665    0.00018778   -0.00023369
     atom   30 type  2   force =    -0.00048614   -0.00039967   -0.00017241
     atom   31 type  2   force =    -0.00046827   -0.00034856    0.00002206
     atom   32 type  2   force =     0.00035848    0.00004341   -0.00036320
     atom   33 type  2   force =     0.00011588   -0.00004454    0.00094666
     atom   34 type  2   force =    -0.00030065    0.00026700    0.00083515
     atom   35 type  2   force =     0.00040078   -0.00053140   -0.00035023
     atom   36 type  2   force =     0.00031992   -0.00042856    0.00021832
     atom   37 type  2   force =     0.00003665   -0.00018778   -0.00023369
     atom   38 type  2   force =    -0.00048614    0.00039967   -0.00017241
     atom   39 type  2   force =    -0.00046827    0.00034856    0.00002206
     atom   40 type  2   force =     0.00035848   -0.00004341   -0.00036320
     atom   41 type  3   force =     0.00007114    0.00064125    0.00007085
     atom   42 type  3   force =    -0.00019946   -0.00051645   -0.00049274
     atom   43 type  3   force =     0.00007114   -0.00064125    0.00007085
     atom   44 type  3   force =    -0.00019946    0.00051645   -0.00049274
     atom   45 type  4   force =     0.00096219    0.00012849   -0.00000523
     atom   46 type  4   force =     0.00096219   -0.00012849   -0.00000523
     atom   47 type  5   force =    -0.00009613    0.00037008    0.00037576
     atom   48 type  5   force =    -0.00082724   -0.00061711    0.00056413
     atom   49 type  5   force =    -0.00089983   -0.00017116    0.00006659
     atom   50 type  5   force =     0.00000316   -0.00001904    0.00069278
     atom   51 type  5   force =    -0.00009613   -0.00037008    0.00037576
     atom   52 type  5   force =    -0.00082724    0.00061711    0.00056413
     atom   53 type  5   force =    -0.00089983    0.00017116    0.00006659
     atom   54 type  5   force =     0.00000316    0.00001904    0.00069278

     Total force =     0.005321     Total SCF correction =     0.000180

     bfgs converged in  49 scf cycles and  47 bfgs steps
     (criteria: energy <  1.0E-04 Ry, force <  1.0E-03 Ry/Bohr)

     End of BFGS Geometry Optimization

     Final energy   =    -811.2550301118 Ry
Begin final coordinates

ATOMIC_POSITIONS (crystal)
C             0.5762097970        0.9714452045        0.5226273320
C             0.7802379326        1.0141921802        0.5471009606
C             0.9034655027        0.9732594836        0.6511502213
C             0.4154659706        0.5283226483        0.5274489863
C             0.4910758091        0.6119618579        0.6068073330
C             0.5008218198        0.8898492393        0.6035006955
C             0.8178750949        0.8915439560        0.7279149054
C             0.1801516914        0.6085370823        0.7287831851
C             0.0943627074        0.5246581431        0.6532255800
C             0.2147585454        0.4837422820        0.5510724671
C             0.8656802761        0.1010039880        0.4658277777
C             0.1326983322        0.3947714381        0.4698870671
C             0.0762097970        0.0285547955        0.0226273320
C             0.2802379326       -0.0141921802        0.0471009606
C             0.4034655027        0.0267405164        0.1511502213
C             0.9154659706        0.4716773517        0.0274489863
C             0.9910758091        0.3880381421        0.1068073330
C             0.0008218198        0.1101507607        0.1035006955
C             0.3178750949        0.1084560440        0.2279149054
C             0.6801516914        0.3914629177        0.2287831851
C             0.5943627074        0.4753418569        0.1532255800
C             0.7147585454        0.5162577180        0.0510724671
C             0.3656802761        0.8989960120        0.9658277777
C             0.6326983322        0.6052285619        0.9698870671
H             0.4732685496        1.0004431285        0.4437590164
H             0.0631591186        1.0027482387        0.6742205893
H             0.5159182185        0.4983713066        0.4507521078
H             0.6466769589        0.6482856685        0.5925669940
H             0.3427320188        0.8550408717        0.5890171700
H             0.9099693345        0.8575813317        0.8088314620
H             0.0916255262        0.6429682369        0.8084130314
H             0.9376577598        0.4934985462        0.6764365657
H            -0.0267314504       -0.0004431285        0.9437590164
H             0.5631591186       -0.0027482387        0.1742205893
H             1.0159182185        0.5016286934        0.9507521078
H             0.1466769589        0.3517143315        0.0925669940
H             0.8427320188        0.1449591283        0.0890171700
H             0.4099693345        0.1424186683        0.3088314620
H             0.5916255262        0.3570317631        0.3084130314
H             0.4376577598        0.5065014538        0.1764365657
N             0.6199363040        0.8520585477        0.7047578539
N             0.3751901383        0.6498634469        0.7061709337
N             0.1199363040        0.1479414523        0.2047578539
N             0.8751901383        0.3501365531        0.2061709337
Ni            0.4997497134        0.7520158229        0.8350511879
Ni            0.9997497134        0.2479841771        0.3350511879
O             0.2439130270        0.3488091049        0.3815369187
O             0.7547763607        0.1481802485        0.3753905229
O             0.9440630387        0.3564493324        0.4807934274
O             0.0569604534        0.1366353649        0.4793857074
O             0.7439130270        0.6511908951        0.8815369187
O             0.2547763607        0.8518197515        0.8753905229
O             0.4440630387        0.6435506676        0.9807934274
O             0.5569604534        0.8633646351        0.9793857074
End final coordinates

     Writing output data file ./QE_relaxation_results/PBESOL_relax/NiPyC2_relax/NiPyC2_pbesol_relax.save/

     General routines

     Parallel routines

   This run was terminated on:  11:53: 5   9Jun2020

   JOB DONE.
QE finished Tue Jun 9 11:53:05 PDT 2020