     Program PWSCF v.6.5 starts on  8Jun2020 at 20: 9:11

     K-points division:     npool     =       2
     R & G space division:  proc/nbgrp/npool/nimage =       8
     Reading input from QE_input_scripts/pw.NiPyC2_relax_meta_functionalized_F_pbesol-relax.in
Warning: card &CELL ignored
Warning: card CELL_DYNAMICS = 'BFGS' ignored
Warning: card CELL_DOFREE = 'XYZ' ignored
Warning: card / ignored

     Current dimensions of program PWSCF are:
     Max number of different atomic species (ntypx) = 10
     Max number of k-points (npk) =  40000
     Max angular momentum in pseudopotentials (lmaxx) =  3

     Parameters for Dispersion (Grimme-D2) Correction:
       atom      VdW radius       C_6

        C          2.744         60.710
        F          2.432         26.018
        H          1.892          4.857
        N          2.640         42.670
        Ni         2.952        374.666
        O          2.536         24.284

     gamma-point specific algorithms are used

     Subspace diagonalization in iterative solution of the eigenvalue problem:
     a serial algorithm will be used

     bravais-lattice index     =            0
     lattice parameter (alat)  =      11.8161  a.u.
     unit-cell volume          =    5429.3114 (a.u.)^3
     number of atoms/cell      =           54
     number of atomic types    =            6
     number of electrons       =       224.00 (up: 114.00, down: 110.00)
     number of Kohn-Sham states=          137
     kinetic-energy cutoff     =     100.0000  Ry
     charge density cutoff     =     400.0000  Ry
     convergence threshold     =      1.0E-06
     mixing beta               =       0.7000
     number of iterations used =            8  local-TF  mixing
     Exchange-correlation= PBESOL
                           (   1   4  10   8   0   0   0)
     nstep                     =          200

     celldm(1)=  11.816080  celldm(2)=   0.000000  celldm(3)=   0.000000
     celldm(4)=   0.000000  celldm(5)=   0.000000  celldm(6)=   0.000000

     crystal axes: (cart. coord. in units of alat)
               a(1) = (   1.000000   0.000000   0.000000 )
               a(2) = (   0.000000   2.002847   0.000000 )
               a(3) = (  -0.036399   0.000000   1.643149 )

     reciprocal axes: (cart. coord. in units 2 pi/alat)
               b(1) = (  1.000000  0.000000  0.022152 )
               b(2) = (  0.000000  0.499289  0.000000 )
               b(3) = (  0.000000  0.000000  0.608588 )

     PseudoPot. # 1 for C  read from file:
     ./pseudo/C.pbesol-nc.UPF
     MD5 check sum: ce26087537ded160c8d400e183a8bf42
     Pseudo is Norm-conserving, Zval =  4.0
     Generated using "atomic" code by A. Dal Corso v.6.5
     Using radial grid of 1073 points,  1 beta functions with:
                l(1) =   1

     PseudoPot. # 2 for F  read from file:
     ./pseudo/F.pbesol-n-nc.UPF
     MD5 check sum: 7bfb8b5cfca7590fa41d3808836ab4b2
     Pseudo is Norm-conserving, Zval =  7.0
     Generated using "atomic" code by A. Dal Corso v.6.5
     Using radial grid of 1105 points,  1 beta functions with:
                l(1) =   1

     PseudoPot. # 3 for H  read from file:
     ./pseudo/H.pbesol-n-nc.UPF
     MD5 check sum: 7995ef24074557c85b430109caaacc09
     Pseudo is Norm-conserving, Zval =  1.0
     Generated using "atomic" code by A. Dal Corso v.6.5
     Using radial grid of  929 points,  0 beta functions with:

     PseudoPot. # 4 for N  read from file:
     ./pseudo/N.pbesol-nc.UPF
     MD5 check sum: e18cc5e4b8a5600c1a19b30c2cab1ca0
     Pseudo is Norm-conserving, Zval =  5.0
     Generated using "atomic" code by A. Dal Corso v.6.5
     Using radial grid of 1085 points,  1 beta functions with:
                l(1) =   1

     PseudoPot. # 5 for Ni read from file:
     ./pseudo/Ni.pbesol-n-nc.UPF
     MD5 check sum: 623411631e0c2eb7c0b2b9815547d2d9
     Pseudo is Norm-conserving + core correction, Zval = 10.0
     Generated using "atomic" code by A. Dal Corso v.6.5
     Using radial grid of 1195 points,  2 beta functions with:
                l(1) =   1
                l(2) =   2

     PseudoPot. # 6 for O  read from file:
     ./pseudo/O.pbesol-nc.UPF
     MD5 check sum: 73d10e7e91dbfcbe8a7e362101007f84
     Pseudo is Norm-conserving, Zval =  6.0
     Generated using "atomic" code by A. Dal Corso v.6.5
     Using radial grid of 1095 points,  1 beta functions with:
                l(1) =   1

     atomic species   valence    mass     pseudopotential
        C              4.00    12.01070     C ( 1.00)
        F              7.00    18.99840     F ( 1.00)
        H              1.00     1.00794     H ( 1.00)
        N              5.00    14.00670     N ( 1.00)
        Ni            10.00    58.69340     Ni( 1.00)
        O              6.00    15.99940     O ( 1.00)

     Starting magnetic structure
     atomic species   magnetization
        C            0.000
        F            0.000
        H            0.000
        N            0.000
        Ni           0.250
        O            0.000

     No symmetry found

   Cartesian axes

     site n.     atom                  positions (alat units)
         1           C   tau(   1) = (   0.5574254   1.9428615   0.8576972  )
         2           C   tau(   2) = (   0.0759460   0.0623006   0.0366554  )
         3           C   tau(   3) = (   0.7613774   0.0235735   0.8979675  )
         4           C   tau(   4) = (   0.2788093   1.9782998   0.0758247  )
         5           C   tau(   5) = (   0.8801573   1.9431659   1.0686561  )
         6           C   tau(   6) = (   0.3995851   0.0567867   0.2462965  )
         7           C   tau(   7) = (   0.3972033   1.0609159   0.8649271  )
         8           C   tau(   8) = (   0.9160753   0.9441600   0.0458504  )
         9           C   tau(   9) = (   0.4682005   1.2284080   0.9964628  )
        10           C   tau(  10) = (   0.9896845   0.7784605   0.1784739  )
        11           C   tau(  11) = (   0.4769962   1.7809433   0.9911521  )
        12           C   tau(  12) = (  -0.0016555   0.2247835   0.1712933  )
        13           C   tau(  13) = (   0.7894720   1.7812978   1.1954760  )
        14           C   tau(  14) = (   0.3115769   0.2194059   0.3743289  )
        15           C   tau(  15) = (   0.1512493   1.2196996   1.1951474  )
        16           C   tau(  16) = (   0.6734303   0.7843809   0.3769284  )
        17           C   tau(  17) = (   0.0701431   1.0516528   1.0702023  )
        18           C   tau(  18) = (   0.5897559   0.9507734   0.2509975  )
        19           C   tau(  19) = (   0.1963045   0.9699186   0.9039223  )
        20           C   tau(  20) = (   0.7138218   1.0327799   0.0832058  )
        21           C   tau(  21) = (   0.8496346   0.1989207   0.7667276  )
        22           C   tau(  22) = (   0.3278858   1.8020013   1.5867425  )
        23           C   tau(  23) = (   0.1176230   0.7900710   0.7733906  )
        24           C   tau(  24) = (   0.5968117   1.2100639   1.5923867  )
        25           F   tau(  25) = (   0.4352903   0.0110117   0.6934267  )
        26           F   tau(  26) = (   0.9158298   1.9968883   1.5155975  )
        27           F   tau(  27) = (   0.8732043   0.9734997   1.1135305  )
        28           F   tau(  28) = (   0.0069066   1.0139652   1.5279276  )
        29           H   tau(  29) = (   0.0396097   2.0004533   1.1066934  )
        30           H   tau(  30) = (   0.5583985   2.0001729   0.2836107  )
        31           H   tau(  31) = (   0.5010477   1.0032159   0.7382370  )
        32           H   tau(  32) = (   0.6237108   1.3028638   0.9737873  )
        33           H   tau(  33) = (   0.1464781   0.7067065   0.1561451  )
        34           H   tau(  34) = (   0.3188852   1.7126803   0.9670915  )
        35           H   tau(  35) = (   0.8413733   0.2958846   0.1476960  )
        36           H   tau(  36) = (   0.8773021   1.7127804   1.3289144  )
        37           H   tau(  37) = (   0.4012392   0.2866134   0.5073993  )
        38           H   tau(  38) = (   0.0580985   1.2877183   1.3253767  )
        39           H   tau(  39) = (   0.5815079   0.7160698   0.5078167  )
        40           H   tau(  40) = (   0.4315256   1.0118402   0.2879848  )
        41           N   tau(  41) = (   0.5912202   1.7049293   1.1581371  )
        42           N   tau(  42) = (   0.1139590   0.2981378   0.3385740  )
        43           N   tau(  43) = (   0.3473934   1.3024713   1.1597967  )
        44           N   tau(  44) = (   0.8700476   0.7028550   0.3418423  )
        45           Ni  tau(  45) = (   0.4635628   1.5051113   1.3742078  )
        46           Ni  tau(  46) = (   0.9875994   0.4967040   0.5573198  )
        47           O   tau(  47) = (   0.2316209   0.6963678   0.6291172  )
        48           O   tau(  48) = (   0.7103381   1.3038072   1.4480936  )
        49           O   tau(  49) = (   0.7415322   0.2954339   0.6197595  )
        50           O   tau(  50) = (   0.2183012   1.7071304   1.4398270  )
        51           O   tau(  51) = (   0.9285576   0.7133339   0.7936309  )
        52           O   tau(  52) = (   0.4066087   1.2846559   1.6100834  )
        53           O   tau(  53) = (   0.0401684   0.2707008   0.7904826  )
        54           O   tau(  54) = (   0.5177231   1.7279720   1.6092980  )

     number of k points=     1  Marzari-Vanderbilt smearing, width (Ry)=  0.2000
                       cart. coord. in units 2pi/alat
        k(    1) = (   0.0000000   0.0000000   0.0000000), wk =   1.0000000

     Check: negative core charge=   -0.000145

     Initial potential from superposition of free atoms

     starting charge  223.99839, renormalised to  224.00000
     Starting wfcs are  190 randomized atomic wfcs

     Self-consistent Calculation

     iteration #  1     ecut=   100.00 Ry     beta= 0.70
     Davidson diagonalization with overlap
     ethr =  1.00E-02,  avg # of iterations =  4.0

     total energy              =    -997.40245324 Ry
     Harris-Foulkes estimate   =   -1001.03720343 Ry
     estimated scf accuracy    <       9.10616104 Ry

     total magnetization       =     4.00 Bohr mag/cell
     absolute magnetization    =     4.33 Bohr mag/cell

[...]

     Magnetic moment per site:
     atom:    1    charge:    0.8143    magn:    0.0058    constr:    0.0000
     atom:    2    charge:    0.8135    magn:    0.0058    constr:    0.0000
     atom:    3    charge:    0.8510    magn:    0.0057    constr:    0.0000
     atom:    4    charge:    0.8499    magn:    0.0057    constr:    0.0000
     atom:    5    charge:    0.8442    magn:    0.0057    constr:    0.0000
     atom:    6    charge:    0.8439    magn:    0.0057    constr:    0.0000
     atom:    7    charge:    0.8452    magn:    0.0053    constr:    0.0000
     atom:    8    charge:    0.8133    magn:    0.0054    constr:    0.0000
     atom:    9    charge:    0.8376    magn:    0.0066    constr:    0.0000
     atom:   10    charge:    0.8411    magn:    0.0070    constr:    0.0000
     atom:   11    charge:    0.8411    magn:    0.0072    constr:    0.0000
     atom:   12    charge:    0.8410    magn:    0.0072    constr:    0.0000
[...]
H             0.0762798471        0.6461236718        0.8024431863
H             0.5817197846        0.3599937494        0.3093933365
H             0.4386296801        0.5078825016        0.1701747881
N             0.6206236463        0.8461653646        0.7062656639
N             0.1244073351        0.1539084786        0.2063347203
N             0.3676930420        0.6542890385        0.7043664229
N             0.8708871258        0.3488125616        0.2122973989
Ni            0.4939237534        0.7510226388        0.8371560468
Ni            0.9997872678        0.2470115166        0.3400362025
O             0.2481388941        0.3468170701        0.3829004938
O             0.7454119299        0.6537956335        0.8820722727
O             0.7541558376        0.1460977459        0.3749773487
O             0.2487541467        0.8531586961        0.8741591752
O             0.9481934551        0.3535989358        0.4828501938
O             0.4454161782        0.6415632838        0.9802123145
O             0.0526176411        0.1348761397        0.4830743830
O             0.5482476177        0.8625887404        0.9810620274

     Writing output data file ./QE_relaxation_results/PBESOL_relax/NiPyC2_relax/NiPyC2_relax_meta_functionalized_F_pbesol_relax.save/
     NEW-OLD atomic charge density approx. for the potential

     Check: negative core charge=   -0.000145

     Self-consistent Calculation

[...]

     Threshold (ethr) on eigenvalues was too large:
     Diagonalizing with lowered threshold

     Davidson diagonalization with overlap
     ethr =  2.29E-08,  avg # of iterations =  2.5

[...]

     total energy              =    -999.05417806 Ry
     Harris-Foulkes estimate   =    -999.05417807 Ry
     estimated scf accuracy    <       0.00000002 Ry

[...]

     iteration #  9     ecut=   100.00 Ry     beta= 0.70
     Davidson diagonalization with overlap
     ethr =  9.89E-12,  avg # of iterations =  4.0

     Magnetic moment per site:
     atom:    1    charge:    0.8058    magn:    0.0061    constr:    0.0000
     atom:    2    charge:    0.8077    magn:    0.0061    constr:    0.0000
     atom:    3    charge:    0.8455    magn:    0.0058    constr:    0.0000
     atom:    4    charge:    0.8436    magn:    0.0058    constr:    0.0000
     atom:    5    charge:    0.8308    magn:    0.0052    constr:    0.0000
     atom:    6    charge:    0.8236    magn:    0.0052    constr:    0.0000
     atom:    7    charge:    0.8436    magn:    0.0048    constr:    0.0000
     atom:    8    charge:    0.8085    magn:    0.0059    constr:    0.0000
     atom:    9    charge:    0.8368    magn:    0.0074    constr:    0.0000
     atom:   10    charge:    0.8392    magn:    0.0071    constr:    0.0000
     atom:   11    charge:    0.8399    magn:    0.0075    constr:    0.0000
     atom:   12    charge:    0.8414    magn:    0.0075    constr:    0.0000
     atom:   13    charge:    0.8214    magn:    0.0069    constr:    0.0000
     atom:   14    charge:    0.8146    magn:    0.0070    constr:    0.0000
     atom:   15    charge:    0.8362    magn:    0.0081    constr:    0.0000
     atom:   16    charge:    0.8359    magn:    0.0065    constr:    0.0000
     atom:   17    charge:    0.8136    magn:    0.0066    constr:    0.0000
     atom:   18    charge:    0.8459    magn:    0.0047    constr:    0.0000
     atom:   19    charge:    0.8527    magn:    0.0058    constr:    0.0000
     atom:   20    charge:    0.8500    magn:    0.0058    constr:    0.0000
     atom:   21    charge:    0.8229    magn:   -0.0023    constr:    0.0000
     atom:   22    charge:    0.8217    magn:   -0.0024    constr:    0.0000
     atom:   23    charge:    0.8204    magn:   -0.0020    constr:    0.0000
     atom:   24    charge:    0.8210    magn:   -0.0023    constr:    0.0000
     atom:   25    charge:    4.4255    magn:    0.0075    constr:    0.0000
     atom:   26    charge:    4.4654    magn:    0.0074    constr:    0.0000
     atom:   27    charge:    4.6443    magn:    0.0109    constr:    0.0000
     atom:   28    charge:    4.4182    magn:    0.0072    constr:    0.0000
     atom:   29    charge:    0.4586    magn:   -0.0015    constr:    0.0000
     atom:   30    charge:    0.4482    magn:   -0.0014    constr:    0.0000
     atom:   31    charge:    0.4706    magn:   -0.0013    constr:    0.0000
     atom:   32    charge:    0.4856    magn:   -0.0014    constr:    0.0000
     atom:   33    charge:    0.4744    magn:   -0.0012    constr:    0.0000
     atom:   34    charge:    0.4940    magn:   -0.0013    constr:    0.0000
     atom:   35    charge:    0.4984    magn:   -0.0013    constr:    0.0000
     atom:   36    charge:    0.4843    magn:   -0.0009    constr:    0.0000
     atom:   37    charge:    0.4708    magn:   -0.0009    constr:    0.0000
     atom:   38    charge:    0.4854    magn:   -0.0009    constr:    0.0000
     atom:   39    charge:    0.5013    magn:   -0.0012    constr:    0.0000
     atom:   40    charge:    0.4797    magn:   -0.0015    constr:    0.0000
     atom:   41    charge:    2.4461    magn:    0.0127    constr:    0.0000
     atom:   42    charge:    2.4455    magn:    0.0124    constr:    0.0000
     atom:   43    charge:    2.4400    magn:    0.0132    constr:    0.0000
     atom:   44    charge:    2.4441    magn:    0.0133    constr:    0.0000
     atom:   45    charge:    7.4367    magn:    1.1295    constr:    0.0000
     atom:   46    charge:    7.4370    magn:    1.1156    constr:    0.0000
     atom:   47    charge:    3.2599    magn:    0.0630    constr:    0.0000
     atom:   48    charge:    3.2539    magn:    0.0647    constr:    0.0000
     atom:   49    charge:    3.2564    magn:    0.0641    constr:    0.0000
     atom:   50    charge:    3.2587    magn:    0.0650    constr:    0.0000
     atom:   51    charge:    3.2476    magn:    0.0645    constr:    0.0000
     atom:   52    charge:    3.2473    magn:    0.0687    constr:    0.0000
     atom:   53    charge:    3.2363    magn:    0.0697    constr:    0.0000
     atom:   54    charge:    3.2342    magn:    0.0699    constr:    0.0000

     End of self-consistent calculation

 ------ SPIN UP ------------

[...]

 ------ SPIN DOWN ----------

          k = 0.0000 0.0000 0.0000 ( 45819 PWs)   bands (ev):

   -25.7996 -25.7933 -25.7916 -25.7043 -22.1085 -22.0900 -21.9739 -21.9650
   -19.0943 -19.0713 -19.0407 -19.0093 -18.9993 -18.9897 -18.9585 -18.9378
   -15.3094 -15.2427 -15.2179 -15.2059 -13.9019 -13.8543 -13.8273 -13.7234
   -11.7492 -11.5857 -11.5630 -11.5025 -10.8504 -10.8391 -10.7727 -10.7617
    -9.5440  -9.3204  -9.0677  -9.0013  -8.4005  -8.2603  -8.2019  -8.1622
    -7.7744  -7.7223  -7.7123  -7.6647  -7.6443  -7.2662  -6.8791  -6.8060
    -6.7131  -6.6093  -6.5188  -6.4566  -6.3866  -6.3539  -6.3179  -6.1873
    -6.1180  -6.0126  -5.9543  -5.8741  -5.8340  -5.7397  -5.5721  -5.4978
    -5.4704  -5.4321  -5.4031  -5.3913  -4.9245  -4.7987  -4.7937  -4.7272
    -4.6427  -4.5733  -4.5299  -4.4914  -4.3593  -3.9541  -3.9109  -3.8768
    -3.7128  -3.5321  -3.4142  -3.2275  -2.9457  -2.8407  -2.7143  -2.6770
    -2.4958  -2.4033  -2.3662  -2.3119  -2.2579  -2.1197  -2.0341  -1.9720
    -1.8236  -1.7521  -1.5706  -1.4504  -1.3279  -1.2805  -1.2554  -1.1340
    -1.0708  -0.9338  -0.9287  -0.9084  -0.8894  -0.7919   0.8767   0.9139
     1.0970   1.1363   2.2642   2.3000   2.3356   2.4458   3.4792   3.5487
     3.8309   3.9030   3.9491   4.6199   4.8139   4.9205   5.0104   5.0488
     5.3826   5.7182   6.0297   6.1058   6.1502   6.4821   6.8763   6.9591
     7.1824

     the spin up/dw Fermi energies are     0.6071    0.2331 ev

!    total energy              =    -999.05417806 Ry
     Harris-Foulkes estimate   =    -999.05417806 Ry
     estimated scf accuracy    <          7.5E-09 Ry

     The total energy is the sum of the following terms:

     one-electron contribution =   -1388.58583164 Ry
     hartree contribution      =     777.36370443 Ry
     xc contribution           =    -280.35919711 Ry
     ewald contribution        =    -108.64582185 Ry
     Dispersion Correction     =      -0.22598332 Ry
     smearing contrib. (-TS)   =       1.39895144 Ry

     total magnetization       =     4.00 Bohr mag/cell
     absolute magnetization    =     4.14 Bohr mag/cell

     convergence has been achieved in   9 iterations

     Forces acting on atoms (cartesian axes, Ry/au):

     atom    1 type  1   force =    -0.00010034   -0.00030808   -0.00013799
     atom    2 type  1   force =     0.00005120    0.00047920    0.00018004
     atom    3 type  1   force =     0.00019893   -0.00019810   -0.00011471
     atom    4 type  1   force =     0.00018842    0.00016989   -0.00021460
     atom    5 type  1   force =     0.00028364    0.00016669   -0.00041714
     atom    6 type  1   force =     0.00045551   -0.00010802   -0.00031443
     atom    7 type  1   force =    -0.00005408   -0.00068185    0.00010340
     atom    8 type  1   force =    -0.00003734   -0.00024885    0.00017389
     atom    9 type  1   force =    -0.00078710   -0.00069463    0.00009465
     atom   10 type  1   force =    -0.00004469    0.00039272   -0.00004599
     atom   11 type  1   force =    -0.00015916    0.00057244   -0.00035572
     atom   12 type  1   force =    -0.00020957   -0.00041113   -0.00012216
     atom   13 type  1   force =     0.00022583   -0.00013181   -0.00071216
     atom   14 type  1   force =     0.00019776    0.00026881   -0.00075516
     atom   15 type  1   force =    -0.00029521    0.00010278    0.00003630
     atom   16 type  1   force =     0.00025145    0.00007765   -0.00018801
     atom   17 type  1   force =    -0.00008329    0.00036247   -0.00010179
     atom   18 type  1   force =    -0.00075227    0.00030917    0.00016418
     atom   19 type  1   force =    -0.00023611    0.00029649    0.00018456
     atom   20 type  1   force =     0.00024236   -0.00001663    0.00002421
     atom   21 type  1   force =     0.00036199   -0.00025793    0.00039281
     atom   22 type  1   force =     0.00030194    0.00047143    0.00053079
     atom   23 type  1   force =    -0.00001834    0.00006985    0.00000621
     atom   24 type  1   force =    -0.00031931   -0.00012496    0.00090464
     atom   25 type  2   force =    -0.00033259   -0.00001188   -0.00056615
     atom   26 type  2   force =    -0.00026208   -0.00018001   -0.00018327
     atom   27 type  2   force =    -0.00000479   -0.00025916    0.00088531
     atom   28 type  2   force =     0.00025415    0.00009792   -0.00035993
     atom   29 type  3   force =     0.00036128    0.00012834    0.00033600
     atom   30 type  3   force =     0.00030671   -0.00022627    0.00024481
     atom   31 type  3   force =     0.00023104   -0.00080244   -0.00026820
     atom   32 type  3   force =    -0.00059243   -0.00037915    0.00041271
     atom   33 type  3   force =    -0.00018270    0.00016369    0.00049616
     atom   34 type  3   force =     0.00056701    0.00007978    0.00042120
     atom   35 type  3   force =     0.00040837   -0.00005608    0.00033655
     atom   36 type  3   force =    -0.00091418   -0.00015590   -0.00049147
     atom   37 type  3   force =    -0.00065571    0.00019871   -0.00061856
     atom   38 type  3   force =     0.00030232    0.00024761    0.00008318
     atom   39 type  3   force =     0.00075470   -0.00001562    0.00007991
     atom   40 type  3   force =    -0.00037164    0.00001930    0.00050604
     atom   41 type  4   force =     0.00004670   -0.00014828   -0.00044571
     atom   42 type  4   force =     0.00011916    0.00024587   -0.00040249
     atom   43 type  4   force =    -0.00007898   -0.00019295   -0.00001140
     atom   44 type  4   force =     0.00010038    0.00027442   -0.00010107
     atom   45 type  5   force =     0.00007394   -0.00012792   -0.00003852
     atom   46 type  5   force =     0.00001811   -0.00006166    0.00013699
     atom   47 type  6   force =     0.00008815    0.00014682    0.00016065
     atom   48 type  6   force =    -0.00029842    0.00026660    0.00027547
     atom   49 type  6   force =    -0.00003264   -0.00009536    0.00019587
     atom   50 type  6   force =     0.00019571   -0.00026958    0.00003112
     atom   51 type  6   force =     0.00022265   -0.00024315   -0.00044019
     atom   52 type  6   force =     0.00018357    0.00052718    0.00053774
     atom   53 type  6   force =    -0.00022936    0.00012408   -0.00042330
     atom   54 type  6   force =     0.00005935    0.00014747   -0.00010526

     Total force =     0.004260     Total SCF correction =     0.000205

     bfgs converged in  29 scf cycles and  28 bfgs steps
     (criteria: energy <  1.0E-04 Ry, force <  1.0E-03 Ry/Bohr)

     End of BFGS Geometry Optimization

     Final energy   =    -999.0541780616 Ry
Begin final coordinates

ATOMIC_POSITIONS (crystal)
C             0.5764631476        0.9633782368        0.5245269213
C             0.0764955891        0.0372354380        0.0241445472
C             0.7814662898        0.0086190650        0.5438538192
C             0.2809546752        0.9910085100        0.0424754287
C             0.9048633688        0.9644821705        0.6451088886
C             0.4064495429        0.0349725004        0.1429693458
C             0.4172086447        0.5289031451        0.5296268165
C             0.9185152962        0.4681570427        0.0335586432
C             0.4872208353        0.6149895772        0.6067001570
C             0.9905417978        0.3843938039        0.1149742928
C             0.4990515516        0.8832361629        0.6074051619
C             0.0013892406        0.1175312913        0.1076870571
C             0.8227013161        0.8827862413        0.7233899261
C             0.3265390145        0.1168532708        0.2218989738
C             0.1730401145        0.6143229721        0.7248115132
C             0.6752047867        0.3922609254        0.2307002210
C             0.0945408390        0.5278868148        0.6488053650
C             0.5961066552        0.4753041894        0.1513395554
C             0.2176105074        0.4824259570        0.5495549005
C             0.7173595727        0.5165916311        0.0503806187
C             0.8629757432        0.0978101637        0.4652243567
C             0.3595435024        0.9009851589        0.9638180576
C             0.1364452998        0.3925324561        0.4710261718
C             0.6364469648        0.6053984458        0.9688410512
F             0.4470993256       -0.0068620149        0.4295109281
F             0.9451716245        1.0081638524        0.9297771250
F             0.9059643850        0.4899814230        0.6764019669
F             0.0492647284        0.4978847810        0.9428031633
H             0.0652972882        0.9936872741        0.6664763940
H             0.5670379078        1.0054683478        0.1632825789
H             0.5215455629        0.4987680515        0.4548746664
H             0.6413575585        0.6525046456        0.5931244233
H             0.1467789959        0.3487989736        0.0996644316
H             0.3380212803        0.8519023591        0.5921713941
H             0.8406126071        0.1494060900        0.0932695858
H             0.9179232645        0.8484823453        0.8021414127
H             0.4234319927        0.1509899345        0.3000471641
H             0.0762798471        0.6461236718        0.8024431863
H             0.5817197846        0.3599937494        0.3093933365
H             0.4386296801        0.5078825016        0.1701747881
N             0.6206236463        0.8461653646        0.7062656639
N             0.1244073351        0.1539084786        0.2063347203
N             0.3676930420        0.6542890385        0.7043664229
N             0.8708871258        0.3488125616        0.2122973989
Ni            0.4939237534        0.7510226388        0.8371560468
Ni            0.9997872678        0.2470115166        0.3400362025
O             0.2481388941        0.3468170701        0.3829004938
O             0.7454119299        0.6537956335        0.8820722727
O             0.7541558376        0.1460977459        0.3749773487
O             0.2487541467        0.8531586961        0.8741591752
O             0.9481934551        0.3535989358        0.4828501938
O             0.4454161782        0.6415632838        0.9802123145
O             0.0526176411        0.1348761397        0.4830743830
O             0.5482476177        0.8625887404        0.9810620274
End final coordinates

     Writing output data file ./QE_relaxation_results/PBESOL_relax/NiPyC2_relax/NiPyC2_relax_meta_functionalized_F_pbesol_relax.save/

     General routines

     Parallel routines

   This run was terminated on:  21:55: 7   8Jun2020

   JOB DONE.
QE finished Mon Jun 8 21:55:07 PDT 2020