     Program PWSCF v.6.5 starts on 23Jun2020 at  8:21:48

     K-points division:     npool     =       2
     R & G space division:  proc/nbgrp/npool/nimage =      16
     Reading input from QE_input_scripts/pw.NiPyC2_relax_sc211_meta_functionalized_Cl_pbesol_relax.in
Warning: card &CELL ignored
Warning: card    CELL_DYNAMICS = 'BFGS' ignored
Warning: card    CELL_DOFREE = 'XYZ' ignored
Warning: card / ignored

     Current dimensions of program PWSCF are:
     Max number of different atomic species (ntypx) = 10
     Max number of k-points (npk) =  40000
     Max angular momentum in pseudopotentials (lmaxx) =  3

     Parameters for Dispersion (Grimme-D2) Correction:
       atom      VdW radius       C_6

        C          2.744         60.710
        Cl         3.097        175.885
        H          1.892          4.857
        N          2.640         42.670
        Ni         2.952        374.666
        O          2.536         24.284

     gamma-point specific algorithms are used

     Subspace diagonalization in iterative solution of the eigenvalue problem:
     a serial algorithm will be used

     bravais-lattice index     =            0
     lattice parameter (alat)  =      23.6322  a.u.
     unit-cell volume          =   10858.6228 (a.u.)^3
     number of atoms/cell      =          108
     number of atomic types    =            6
     number of electrons       =       448.00 (up: 228.00, down: 220.00)
     number of Kohn-Sham states=          274
     kinetic-energy cutoff     =     100.0000  Ry
     charge density cutoff     =     400.0000  Ry
     convergence threshold     =      1.0E-06
     mixing beta               =       0.7000
     number of iterations used =            8  local-TF  mixing
     Exchange-correlation= PBESOL
                           (   1   4  10   8   0   0   0)
     nstep                     =          200

     celldm(1)=  23.632159  celldm(2)=   0.000000  celldm(3)=   0.000000
     celldm(4)=   0.000000  celldm(5)=   0.000000  celldm(6)=   0.000000

     crystal axes: (cart. coord. in units of alat)
               a(1) = (   1.000000   0.000000   0.000000 )
               a(2) = (   0.000000   1.001423   0.000000 )
               a(3) = (  -0.018199   0.000000   0.821574 )

     reciprocal axes: (cart. coord. in units 2 pi/alat)
               b(1) = (  1.000000  0.000000  0.022152 )
               b(2) = (  0.000000  0.998579  0.000000 )
               b(3) = (  0.000000  0.000000  1.217175 )

     PseudoPot. # 1 for C  read from file:
     ./pseudo/C.pbesol-nc.UPF
     MD5 check sum: ce26087537ded160c8d400e183a8bf42
     Pseudo is Norm-conserving, Zval =  4.0
     Generated using "atomic" code by A. Dal Corso v.6.5
     Using radial grid of 1073 points,  1 beta functions with:
                l(1) =   1

     PseudoPot. # 2 for Cl read from file:
     ./pseudo/Cl.pbesol-n-nc.UPF
     MD5 check sum: 7a3420c4b1251c4f435754b8525b54b2
     Pseudo is Norm-conserving + core correction, Zval =  7.0
     Generated using "atomic" code by A. Dal Corso v.6.5
     Using radial grid of 1157 points,  2 beta functions with:
                l(1) =   0
                l(2) =   1

     PseudoPot. # 3 for H  read from file:
     ./pseudo/H.pbesol-n-nc.UPF
     MD5 check sum: 7995ef24074557c85b430109caaacc09
     Pseudo is Norm-conserving, Zval =  1.0
     Generated using "atomic" code by A. Dal Corso v.6.5
     Using radial grid of  929 points,  0 beta functions with:

     PseudoPot. # 4 for N  read from file:
     ./pseudo/N.pbesol-nc.UPF
     MD5 check sum: e18cc5e4b8a5600c1a19b30c2cab1ca0
     Pseudo is Norm-conserving, Zval =  5.0
     Generated using "atomic" code by A. Dal Corso v.6.5
     Using radial grid of 1085 points,  1 beta functions with:
                l(1) =   1

     PseudoPot. # 5 for Ni read from file:
     ./pseudo/Ni.pbesol-n-nc.UPF
     MD5 check sum: 623411631e0c2eb7c0b2b9815547d2d9
     Pseudo is Norm-conserving + core correction, Zval = 10.0
     Generated using "atomic" code by A. Dal Corso v.6.5
     Using radial grid of 1195 points,  2 beta functions with:
                l(1) =   1
                l(2) =   2

     PseudoPot. # 6 for O  read from file:
     ./pseudo/O.pbesol-nc.UPF
     MD5 check sum: 73d10e7e91dbfcbe8a7e362101007f84
     Pseudo is Norm-conserving, Zval =  6.0
     Generated using "atomic" code by A. Dal Corso v.6.5
     Using radial grid of 1095 points,  1 beta functions with:
                l(1) =   1

     atomic species   valence    mass     pseudopotential
        C              4.00    12.01070     C ( 1.00)
        Cl             7.00    35.45300     Cl( 1.00)
        H              1.00     1.00794     H ( 1.00)
        N              5.00    14.00670     N ( 1.00)
        Ni            10.00    58.69340     Ni( 1.00)
        O              6.00    15.99940     O ( 1.00)

     Starting magnetic structure
     atomic species   magnetization
        C            0.000
        Cl           0.000
        H            0.000
        N            0.000
        Ni           0.250
        O            0.000

     No symmetry found

   Cartesian axes

     site n.     atom                  positions (alat units)
         1           C   tau(   1) = (   0.2787122   0.9714307   0.4288486  )
         2           C   tau(   2) = (   0.0379730   0.0311503   0.0183277  )
         3           C   tau(   3) = (   0.3806882   0.0117868   0.4489838  )
         4           C   tau(   4) = (   0.1394042   0.9891499   0.0379124  )
         5           C   tau(   5) = (   0.4400787   0.9715829   0.5343281  )
         6           C   tau(   6) = (   0.1997920   0.0283934   0.1231482  )
         7           C   tau(   7) = (   0.1986011   0.5304580   0.4324635  )
         8           C   tau(   8) = (   0.4580372   0.4720800   0.0229252  )
         9           C   tau(   9) = (   0.2341003   0.6142040   0.4982314  )
        10           C   tau(  10) = (   0.4948422   0.3892302   0.0892369  )
        11           C   tau(  11) = (   0.2384981   0.8904717   0.4955761  )
        12           C   tau(  12) = (  -0.0008282   0.1123917   0.0856467  )
        13           C   tau(  13) = (   0.3947360   0.8906489   0.5977380  )
        14           C   tau(  14) = (   0.1557890   0.1097029   0.1871645  )
        15           C   tau(  15) = (   0.0756247   0.6098498   0.5975737  )
        16           C   tau(  16) = (   0.3367152   0.3921904   0.1884642  )
        17           C   tau(  17) = (   0.0350715   0.5258264   0.5351012  )
        18           C   tau(  18) = (   0.2948780   0.4753867   0.1254988  )
        19           C   tau(  19) = (   0.0981522   0.4849593   0.4519611  )
        20           C   tau(  20) = (   0.3569104   0.5163900   0.0416029  )
        21           C   tau(  21) = (   0.4248178   0.0994604   0.3833638  )
        22           C   tau(  22) = (   0.1639424   0.9010006   0.7933713  )
        23           C   tau(  23) = (   0.0588120   0.3950355   0.3866953  )
        24           C   tau(  24) = (   0.2984059   0.6050320   0.7961934  )
        25           C   tau(  25) = (   0.7787122   0.9714307   0.4288486  )
        26           C   tau(  26) = (   0.5379730   0.0311503   0.0183277  )
        27           C   tau(  27) = (   0.8806882   0.0117868   0.4489838  )
        28           C   tau(  28) = (   0.6394042   0.9891499   0.0379124  )
        29           C   tau(  29) = (   0.9400787   0.9715829   0.5343281  )
        30           C   tau(  30) = (   0.6997920   0.0283934   0.1231482  )
        31           C   tau(  31) = (   0.6986021   0.5304580   0.4324635  )
        32           C   tau(  32) = (   0.9580382   0.4720800   0.0229252  )
        33           C   tau(  33) = (   0.7341003   0.6142040   0.4982314  )
        34           C   tau(  34) = (   0.9948422   0.3892302   0.0892369  )
        35           C   tau(  35) = (   0.7384981   0.8904717   0.4955761  )
        36           C   tau(  36) = (   0.4991718   0.1123917   0.0856467  )
        37           C   tau(  37) = (   0.8947360   0.8906489   0.5977380  )
        38           C   tau(  38) = (   0.6557880   0.1097029   0.1871645  )
        39           C   tau(  39) = (   0.5756247   0.6098498   0.5975737  )
        40           C   tau(  40) = (   0.8367152   0.3921904   0.1884642  )
        41           C   tau(  41) = (   0.5350715   0.5258264   0.5351012  )
        42           C   tau(  42) = (   0.7948780   0.4753867   0.1254988  )
        43           C   tau(  43) = (   0.5981522   0.4849593   0.4519611  )
        44           C   tau(  44) = (   0.8569104   0.5163900   0.0416029  )
        45           C   tau(  45) = (   0.9248178   0.0994604   0.3833638  )
        46           C   tau(  46) = (   0.6639424   0.9010006   0.7933713  )
        47           C   tau(  47) = (   0.5588110   0.3950355   0.3866953  )
        48           C   tau(  48) = (   0.7984059   0.6050320   0.7961934  )
        49           Cl  tau(  49) = (   0.1958065   0.0131807   0.3231547  )
        50           Cl  tau(  50) = (   0.3293560   0.9850801   0.1559709  )
        51           Cl  tau(  51) = (   0.9063869   0.4780425   0.5668665  )
        52           Cl  tau(  52) = (   0.5259391   0.5143641   0.7409261  )
        53           Cl  tau(  53) = (   0.6958065   0.0131807   0.3231547  )
        54           Cl  tau(  54) = (   0.8293549   0.9850801   0.1559726  )
        55           Cl  tau(  55) = (   0.7848928   0.4887937   0.3290101  )
        56           Cl  tau(  56) = (   0.6658457   0.5219699   0.1577899  )
        57           H   tau(  57) = (   0.4693669   0.0026958   0.7751545  )
        58           H   tau(  58) = (   0.0198054   1.0002267   0.5533467  )
        59           H   tau(  59) = (   0.2505234   0.5016080   0.3691185  )
        60           H   tau(  60) = (  -0.0086584   0.5011092   0.7809458  )
[...]
        94           O   tau(  94) = (   0.3551690   0.6519036   0.7240468  )
        95           O   tau(  95) = (   0.3707656   0.1477170   0.3098797  )
        96           O   tau(  96) = (   0.1091506   0.8535652   0.7199135  )
        97           O   tau(  97) = (   0.4642788   0.3566669   0.3968154  )
        98           O   tau(  98) = (   0.2033039   0.6423280   0.8050417  )
        99           O   tau(  99) = (   0.0200847   0.1353504   0.3952413  )
       100           O   tau( 100) = (   0.2588616   0.8639860   0.8046490  )
       101           O   tau( 101) = (   0.6158110   0.3481839   0.3145586  )
       102           O   tau( 102) = (   0.8551690   0.6519036   0.7240468  )
       103           O   tau( 103) = (   0.8707656   0.1477170   0.3098797  )
       104           O   tau( 104) = (   0.6091506   0.8535652   0.7199135  )
       105           O   tau( 105) = (   0.9642788   0.3566669   0.3968154  )
       106           O   tau( 106) = (   0.7033039   0.6423280   0.8050417  )
       107           O   tau( 107) = (   0.5200847   0.1353504   0.3952413  )
       108           O   tau( 108) = (   0.7588616   0.8639860   0.8046490  )

     number of k points=     1  Marzari-Vanderbilt smearing, width (Ry)=  0.2000
                       cart. coord. in units 2pi/alat
[...]
     atom:   52    charge:    1.3163    magn:    0.0170    constr:    0.0000
     atom:   53    charge:    1.6368    magn:    0.0194    constr:    0.0000
     atom:   54    charge:    2.9935    magn:    0.0324    constr:    0.0000
     atom:   55    charge:    1.8105    magn:    0.0217    constr:    0.0000
     atom:   56    charge:    2.3713    magn:    0.0261    constr:    0.0000
     atom:   57    charge:    0.4789    magn:   -0.0013    constr:    0.0000
     atom:   58    charge:    0.4310    magn:   -0.0010    constr:    0.0000
     atom:   59    charge:    0.5079    magn:   -0.0013    constr:    0.0000
     atom:   60    charge:    0.1757    magn:    0.0004    constr:    0.0000
[...]
     atom:   94    charge:    3.1700    magn:    0.0529    constr:    0.0000
     atom:   95    charge:    2.9184    magn:    0.0529    constr:    0.0000
     atom:   96    charge:    3.2111    magn:    0.0534    constr:    0.0000
     atom:   97    charge:    2.7424    magn:    0.0542    constr:    0.0000
     atom:   98    charge:    3.2362    magn:    0.0545    constr:    0.0000
     atom:   99    charge:    3.0830    magn:    0.0546    constr:    0.0000
     atom:  100    charge:    3.2244    magn:    0.0563    constr:    0.0000
     atom:  101    charge:    3.1992    magn:    0.0602    constr:    0.0000
     atom:  102    charge:    3.0682    magn:    0.0544    constr:    0.0000
     atom:  103    charge:    2.9873    magn:    0.0527    constr:    0.0000
     atom:  104    charge:    3.2533    magn:    0.0544    constr:    0.0000
     atom:  105    charge:    2.9238    magn:    0.0533    constr:    0.0000
     atom:  106    charge:    3.1524    magn:    0.0576    constr:    0.0000
     atom:  107    charge:    2.4328    magn:    0.0451    constr:    0.0000
     atom:  108    charge:    3.2453    magn:    0.0564    constr:    0.0000

     End of self-consistent calculation

 ------ SPIN UP ------------

[...]

 ------ SPIN DOWN ----------

          k = 0.0000 0.0000 0.0000 ( 91663 PWs)   bands (ev):

   -21.4937 -21.4581 -21.4505 -21.4109 -21.3286 -21.3257 -21.3110 -21.2586
   -18.4906 -18.4813 -18.4608 -18.4359 -18.4261 -18.4154 -18.4076 -18.3958
   -18.3923 -18.3623 -18.3548 -18.3353 -18.3333 -18.3172 -18.2915 -18.2658
   -16.7017 -16.6690 -16.6004 -16.5359 -16.5231 -16.4839 -16.4740 -16.4600
   -14.3394 -14.3305 -14.3111 -14.2869 -14.2773 -14.2620 -14.2236 -14.2091
   -12.9707 -12.8950 -12.8771 -12.8430 -12.8105 -12.7867 -12.7367 -12.7042
   -10.9569 -10.9012 -10.8522 -10.8042 -10.7842 -10.7747 -10.7660 -10.7293
    -9.9495  -9.9442  -9.9262  -9.8589  -9.8546  -9.8371  -9.8123  -9.7847
    -8.6703  -8.4698  -8.4139  -8.3174  -8.2823  -8.2284  -8.1643  -8.1051
    -7.3437  -7.1895  -7.0483  -6.9903  -6.9614  -6.9549  -6.8885  -6.8863
    -6.8481  -6.8414  -6.7806  -6.6735  -6.6142  -6.5460  -6.5147  -6.4716
    -6.2527  -6.1170  -6.0437  -6.0397  -5.9736  -5.9214  -5.9101  -5.8842
    -5.8367  -5.8108  -5.7310  -5.7170  -5.6966  -5.6433  -5.6340  -5.6000
    -5.5712  -5.5001  -5.4762  -5.4497  -5.3991  -5.3408  -5.3204  -5.2813
    -5.2644  -5.2027  -5.1776  -5.1581  -5.1182  -5.1006  -5.0894  -4.9700
    -4.9450  -4.8432  -4.7898  -4.7641  -4.7422  -4.7144  -4.6634  -4.6221
    -4.5844  -4.5535  -4.4981  -4.4906  -4.4466  -4.3794  -4.3095  -4.1484
    -3.7780  -3.6163  -3.5955  -3.5272  -3.5037  -3.4646  -3.4028  -3.3928
    -3.3713  -3.3565  -3.2850  -3.2610  -3.2047  -3.1566  -3.1214  -3.0970
    -3.0523  -2.9975  -2.9339  -2.8707  -2.8175  -2.7896  -2.7338  -2.6811
    -2.6688  -2.6078  -2.5495  -2.4427  -2.4188  -2.3788  -2.3218  -2.1589
    -2.0955  -2.0030  -1.9354  -1.8751  -1.8196  -1.7759  -1.7646  -1.7317
    -1.7136  -1.6669  -1.6463  -1.5866  -1.5784  -1.5368  -1.4756  -1.4330
    -1.4080  -1.3588  -1.3034  -1.2696  -1.2542  -1.1720  -1.1485  -1.1241
    -1.1025  -1.0350  -0.9667  -0.9203  -0.7983  -0.7743  -0.7007  -0.6755
    -0.5607  -0.5508  -0.5049  -0.4210  -0.3800  -0.3491  -0.3413  -0.3162
    -0.2701  -0.2496  -0.2252  -0.2217  -0.1864  -0.1480  -0.1072  -0.0837
    -0.0557  -0.0233   0.0529   0.1004   1.3911   1.4600   1.4988   1.5954
     1.7158   1.8095   1.8509   1.9129   2.7856   2.8821   2.8975   2.9232
     2.9961   3.0097   3.0239   3.0672   3.7799   3.9510   3.9879   4.0426
     4.1265   4.1361   4.2232   4.2681   4.6477   5.1319   5.2169   5.2616
     5.4041   5.4340   5.5286   5.5574   5.5729   5.6159   5.6549   5.6800
     5.7217   5.8075   5.9794   5.9868   6.1397   6.2060   6.2767   6.3282
     6.3961   6.4668   6.5403   6.6671   6.7669   6.8199   6.9840   7.1273
     7.3287   7.3737

     the spin up/dw Fermi energies are     1.3146    0.9747 ev

!    total energy              =   -1881.93536158 Ry
     Harris-Foulkes estimate   =   -1881.93536158 Ry
     estimated scf accuracy    <          8.5E-09 Ry

     The total energy is the sum of the following terms:

     one-electron contribution =   -2409.42198986 Ry
     hartree contribution      =    1374.93795946 Ry
     xc contribution           =    -566.17366175 Ry
     ewald contribution        =    -283.67567962 Ry
     Dispersion Correction     =      -0.51630608 Ry
     smearing contrib. (-TS)   =       2.91431627 Ry

     total magnetization       =     8.00 Bohr mag/cell
     absolute magnetization    =     8.22 Bohr mag/cell

     convergence has been achieved in  10 iterations

     Forces acting on atoms (cartesian axes, Ry/au):

     atom    1 type  1   force =     0.00036288   -0.00009182    0.00006495
     atom    2 type  1   force =    -0.00032387   -0.00019261    0.00053550
     atom    3 type  1   force =     0.00021962   -0.00016489    0.00016390
     atom    4 type  1   force =     0.00001009   -0.00015644   -0.00035464
     atom    5 type  1   force =    -0.00033730   -0.00023288    0.00010447
     atom    6 type  1   force =     0.00009877    0.00027130   -0.00039187
     atom    7 type  1   force =     0.00009739   -0.00010687   -0.00042377
     atom    8 type  1   force =     0.00007917    0.00003660   -0.00005264
     atom    9 type  1   force =     0.00022310    0.00029486   -0.00015889
     atom   10 type  1   force =    -0.00009694    0.00014619    0.00038914
     atom   11 type  1   force =     0.00025995    0.00002394    0.00012067
     atom   12 type  1   force =     0.00043867   -0.00027514   -0.00022813
     atom   13 type  1   force =    -0.00042224    0.00018737   -0.00017939
     atom   14 type  1   force =    -0.00026675   -0.00037798   -0.00021489
     atom   15 type  1   force =    -0.00006920    0.00023163   -0.00013289
     atom   16 type  1   force =     0.00041927   -0.00003136    0.00058904
     atom   17 type  1   force =    -0.00018266   -0.00033522    0.00002031
     atom   18 type  1   force =    -0.00009606    0.00024533    0.00008201
     atom   19 type  1   force =    -0.00009097    0.00000493    0.00013851
     atom   20 type  1   force =     0.00000249   -0.00028994    0.00037733
     atom   21 type  1   force =    -0.00015006   -0.00001929    0.00035924
     atom   22 type  1   force =     0.00007136    0.00025687   -0.00026535
     atom   23 type  1   force =     0.00012566   -0.00002793   -0.00038521
     atom   24 type  1   force =     0.00002457    0.00003081    0.00019371
     atom   25 type  1   force =     0.00045788    0.00018356    0.00012063
     atom   26 type  1   force =    -0.00011443   -0.00051970    0.00057815
     atom   27 type  1   force =     0.00016869   -0.00021078    0.00014601
     atom   28 type  1   force =     0.00005465   -0.00011530   -0.00016113
     atom   29 type  1   force =     0.00018352   -0.00028750    0.00005588
     atom   30 type  1   force =     0.00000674    0.00035998   -0.00057052
     atom   31 type  1   force =    -0.00030866   -0.00027876   -0.00008445
     atom   32 type  1   force =     0.00000829    0.00042551    0.00014020
     atom   33 type  1   force =     0.00016030    0.00030272   -0.00045483
     atom   34 type  1   force =     0.00016898    0.00039038    0.00007019
     atom   35 type  1   force =    -0.00013139    0.00034877   -0.00068677
     atom   36 type  1   force =     0.00000180   -0.00010196   -0.00033084
     atom   37 type  1   force =    -0.00016041   -0.00000169   -0.00020967
     atom   38 type  1   force =     0.00002680   -0.00025776    0.00023135
     atom   39 type  1   force =    -0.00008781   -0.00023866    0.00010373
     atom   40 type  1   force =    -0.00008902    0.00015428    0.00017614
     atom   41 type  1   force =    -0.00011667   -0.00002890   -0.00046254
     atom   42 type  1   force =     0.00005970   -0.00027248   -0.00075360
     atom   43 type  1   force =     0.00001265    0.00014375    0.00015553
     atom   44 type  1   force =    -0.00004120   -0.00023111    0.00006804
     atom   45 type  1   force =    -0.00011236    0.00002688   -0.00030569
     atom   46 type  1   force =     0.00026909   -0.00009182   -0.00009422
     atom   47 type  1   force =     0.00020685   -0.00020124   -0.00017868
     atom   48 type  1   force =    -0.00004840   -0.00018047    0.00008776
     atom   49 type  2   force =     0.00004656   -0.00063109    0.00018335
     atom   50 type  2   force =     0.00023622   -0.00000860   -0.00036113
     atom   51 type  2   force =    -0.00077214    0.00001231    0.00042677
     atom   52 type  2   force =     0.00034958   -0.00000202    0.00019145
     atom   53 type  2   force =     0.00050518    0.00013311    0.00060470
     atom   54 type  2   force =    -0.00036323    0.00006061   -0.00009702
     atom   55 type  2   force =    -0.00028267    0.00049901    0.00002761
     atom   56 type  2   force =     0.00061840    0.00027352   -0.00011434
     atom   57 type  3   force =     0.00020677    0.00015107    0.00020999
     atom   58 type  3   force =    -0.00040871   -0.00020412   -0.00013431
     atom   59 type  3   force =    -0.00001574    0.00022036   -0.00056439
     atom   60 type  3   force =    -0.00058937    0.00004726    0.00010109
[...]
     atom   94 type  6   force =    -0.00014787   -0.00031811    0.00002254
     atom   95 type  6   force =     0.00014244   -0.00004934   -0.00035987
     atom   96 type  6   force =    -0.00010421   -0.00043097   -0.00006769
     atom   97 type  6   force =     0.00009080    0.00017869    0.00037663
     atom   98 type  6   force =     0.00013740    0.00016319   -0.00032233
     atom   99 type  6   force =    -0.00051732   -0.00026959    0.00053920
     atom  100 type  6   force =    -0.00003036   -0.00009615   -0.00008999
     atom  101 type  6   force =     0.00053830    0.00035875    0.00065234
     atom  102 type  6   force =    -0.00029632    0.00018370    0.00016083
     atom  103 type  6   force =     0.00000208   -0.00001377    0.00021965
     atom  104 type  6   force =     0.00007458   -0.00006997    0.00019640
     atom  105 type  6   force =    -0.00005042    0.00001684    0.00084482
     atom  106 type  6   force =     0.00008388   -0.00014714    0.00002326
     atom  107 type  6   force =    -0.00026055    0.00021895   -0.00002972
     atom  108 type  6   force =     0.00013271    0.00011298    0.00010683

     Total force =     0.005168     Total SCF correction =     0.000222

     bfgs converged in  71 scf cycles and  70 bfgs steps
     (criteria: energy <  1.0E-04 Ry, force <  1.0E-03 Ry/Bohr)

     End of BFGS Geometry Optimization

     Final energy   =   -1881.9353615766 Ry
Begin final coordinates

ATOMIC_POSITIONS (crystal)
C             0.2794786833        0.9671570626        0.5415162717
C             0.0433144244        0.0317091520        0.0097007426
C             0.3802639226        0.0178704445        0.5574108059
C             0.1432636687        0.9855321705        0.0350923993
C             0.4478111370        0.9751948185        0.6547138325
C             0.2055547489        0.0302958332        0.1376231590
C             0.2110466410        0.5240469860        0.5276422456
C             0.4394648506        0.4421771234        0.0097499054
C             0.2448510892        0.6105608053        0.6039492948
C             0.4761961091        0.3621520785        0.0964829092
C             0.2520986388        0.8794982945        0.6202196538
C             0.0069257276        0.1156419639        0.0877744573
C             0.4148386685        0.8893665639        0.7320411924
C             0.1667009381        0.1198269486        0.2074293788
C             0.0987187908        0.5934586680        0.7392004134
C             0.3344264455        0.3935359757        0.2344173262
C             0.0626935953        0.5023233531        0.6694512693
C             0.2955067581        0.4757357625        0.1544086737
C             0.1180795607        0.4684823349        0.5578050793
C             0.3496151669        0.5043062071        0.0422605525
C             0.4158131650        0.1091641316        0.4783104634
C             0.1833739581        0.8941659306        0.9603205002
C             0.0784897336        0.3814130093        0.4738458933
C             0.3132697824        0.5962035492        0.9648958780
C             0.7769563546        0.9787970395        0.5450071413
C             0.5385451664        0.0320138083        0.0228668701
C             0.8827814205        0.0189963408        0.5497431182
C             0.6407042940        0.9896651919        0.0439699038
C             0.9526178370        0.9704456959        0.6402278968
C             0.7034826431        0.0357805110        0.1452075626
C             0.7152099705        0.5247119152        0.5430094967
C             0.9748255786        0.4935147544        0.0523957313
C             0.7519851090        0.6070105588        0.6270715323
C             1.0106711718        0.4081398321        0.1299691950
C             0.7477059005        0.8931015716        0.6255905558
C             0.5005866836        0.1129367034        0.1041911524
C             0.9177903802        0.8876360687        0.7209368960
C             0.6627994753        0.1235177478        0.2169900715
C             0.5793836419        0.6393339532        0.6958293642
C             0.8389643321        0.3746664655        0.2024802696
C             0.5380789637        0.5586668607        0.6139683254
C             0.7988437169        0.4644226158        0.1325522048
C             0.6056612073        0.4962890256        0.5387067231
C             0.8671223854        0.5233634602        0.0513404054
C             0.9215266972        0.1057078508        0.4661557926
C             0.6821272020        0.9011591635        0.9655515657
C             0.5629478580        0.4039967892        0.4642853841
C             0.8255384294        0.6112494647        0.9695490931
Cl            0.1813952157        0.0045223956        0.4402103808
Cl            0.3204569451        0.9735878579        0.1885476787
Cl            0.9588210464        0.4356735009        0.7299116404
Cl            0.5063016422        0.4550641558        0.8720254265
Cl            0.6753601729        0.0282062796        0.4575824248
Cl            0.8220220996        0.9842228077        0.1907444742
Cl            0.8089221483        0.4639535488        0.4584052048
Cl            0.6721009241        0.5002080474        0.1567776979
H             0.4858452851        0.0003764588        0.9467219450
H             0.0346954972        0.9979989441        0.6506046625
H             0.2588427197        0.4999398986        0.4457993438
H             0.0330697307        0.5375605152        0.9968530919
[...]
O             0.3712077801        0.6424844126        0.8796661131
O             0.3614789973        0.1533851738        0.3858764133
O             0.1278101302        0.8459246127        0.8714744000
O             0.4651206275        0.3749898378        0.4720197853
O             0.2201651369        0.6372886229        0.9788925330
O             0.0207886958        0.1339206636        0.4703443521
O             0.2782887095        0.8565686350        0.9773163424
O             0.6191892866        0.3455647199        0.3883422054
O             0.8818088236        0.6608266353        0.8856720029
O             0.8652238591        0.1588464032        0.3829162933
O             0.6260837911        0.8531477736        0.8767339562
O             0.9838928611        0.3426962419        0.4841161901
O             0.7279860887        0.6436069044        0.9744100569
O             0.5092284537        0.1514405248        0.4956484087
O             0.7780754505        0.8656992940        0.9789092322
End final coordinates

     Writing output data file ./QE_relaxation_results/pbesol_relax/NiPyC2_relax_sc211_meta_functionalized_Cl_pbesol_relax.save/

     General routines

     Parallel routines

   This run was terminated on:   3:23:38  24Jun2020

   JOB DONE.
QE finished Wed Jun 24 03:23:38 PDT 2020