     Program PWSCF v.6.5 starts on 21Jun2020 at 23: 0:25

     K-points division:     npool     =       2
     R & G space division:  proc/nbgrp/npool/nimage =      16
     Reading input from QE_input_scripts/pw.NiPyC2_relax_sc211_meta_functionalized_OH_pbesol_relax.in
Warning: card &CELL ignored
Warning: card    CELL_DYNAMICS = 'BFGS' ignored
Warning: card    CELL_DOFREE = 'XYZ' ignored
Warning: card / ignored

     Current dimensions of program PWSCF are:
     Max number of different atomic species (ntypx) = 10
     Max number of k-points (npk) =  40000
     Max angular momentum in pseudopotentials (lmaxx) =  3

     Parameters for Dispersion (Grimme-D2) Correction:
       atom      VdW radius       C_6

        C          2.744         60.710
        H          1.892          4.857
        N          2.640         42.670
        Ni         2.952        374.666
        O          2.536         24.284

     gamma-point specific algorithms are used

     Subspace diagonalization in iterative solution of the eigenvalue problem:
     a serial algorithm will be used

     bravais-lattice index     =            0
     lattice parameter (alat)  =      23.6322  a.u.
     unit-cell volume          =   10858.6228 (a.u.)^3
     number of atoms/cell      =          116
     number of atomic types    =            5
     number of electrons       =       448.00 (up: 228.00, down: 220.00)
     number of Kohn-Sham states=          274
     kinetic-energy cutoff     =     100.0000  Ry
     charge density cutoff     =     400.0000  Ry
     convergence threshold     =      1.0E-06
     mixing beta               =       0.7000
     number of iterations used =            8  local-TF  mixing
     Exchange-correlation= PBESOL
                           (   1   4  10   8   0   0   0)
     nstep                     =          200

     celldm(1)=  23.632159  celldm(2)=   0.000000  celldm(3)=   0.000000
     celldm(4)=   0.000000  celldm(5)=   0.000000  celldm(6)=   0.000000

     crystal axes: (cart. coord. in units of alat)
               a(1) = (   1.000000   0.000000   0.000000 )
               a(2) = (   0.000000   1.001423   0.000000 )
               a(3) = (  -0.018199   0.000000   0.821574 )

     reciprocal axes: (cart. coord. in units 2 pi/alat)
               b(1) = (  1.000000  0.000000  0.022152 )
               b(2) = (  0.000000  0.998579  0.000000 )
               b(3) = (  0.000000  0.000000  1.217175 )

     PseudoPot. # 1 for C  read from file:
     ./pseudo/C.pbesol-nc.UPF
     MD5 check sum: ce26087537ded160c8d400e183a8bf42
     Pseudo is Norm-conserving, Zval =  4.0
     Generated using "atomic" code by A. Dal Corso v.6.5
     Using radial grid of 1073 points,  1 beta functions with:
                l(1) =   1

     PseudoPot. # 2 for H  read from file:
     ./pseudo/H.pbesol-n-nc.UPF
     MD5 check sum: 7995ef24074557c85b430109caaacc09
     Pseudo is Norm-conserving, Zval =  1.0
     Generated using "atomic" code by A. Dal Corso v.6.5
     Using radial grid of  929 points,  0 beta functions with:

     PseudoPot. # 3 for N  read from file:
     ./pseudo/N.pbesol-nc.UPF
     MD5 check sum: e18cc5e4b8a5600c1a19b30c2cab1ca0
     Pseudo is Norm-conserving, Zval =  5.0
     Generated using "atomic" code by A. Dal Corso v.6.5
     Using radial grid of 1085 points,  1 beta functions with:
                l(1) =   1

     PseudoPot. # 4 for Ni read from file:
     ./pseudo/Ni.pbesol-n-nc.UPF
     MD5 check sum: 623411631e0c2eb7c0b2b9815547d2d9
     Pseudo is Norm-conserving + core correction, Zval = 10.0
     Generated using "atomic" code by A. Dal Corso v.6.5
     Using radial grid of 1195 points,  2 beta functions with:
                l(1) =   1
                l(2) =   2

     PseudoPot. # 5 for O  read from file:
     ./pseudo/O.pbesol-nc.UPF
     MD5 check sum: 73d10e7e91dbfcbe8a7e362101007f84
     Pseudo is Norm-conserving, Zval =  6.0
     Generated using "atomic" code by A. Dal Corso v.6.5
     Using radial grid of 1095 points,  1 beta functions with:
                l(1) =   1

     atomic species   valence    mass     pseudopotential
        C              4.00    12.01070     C ( 1.00)
        H              1.00     1.00794     H ( 1.00)
        N              5.00    14.00670     N ( 1.00)
        Ni            10.00    58.69340     Ni( 1.00)
        O              6.00    15.99940     O ( 1.00)

     Starting magnetic structure
     atomic species   magnetization
        C            0.000
        H            0.000
        N            0.000
        Ni           0.250
        O            0.000

     No symmetry found

   Cartesian axes

     site n.     atom                  positions (alat units)
         1           C   tau(   1) = (   0.2787122   0.9714307   0.4288486  )
         2           C   tau(   2) = (   0.0379730   0.0311503   0.0183277  )
         3           C   tau(   3) = (   0.3806882   0.0117868   0.4489838  )
         4           C   tau(   4) = (   0.1394042   0.9891499   0.0379124  )
         5           C   tau(   5) = (   0.4400787   0.9715829   0.5343281  )
         6           C   tau(   6) = (   0.1997920   0.0283934   0.1231482  )
         7           C   tau(   7) = (   0.1986011   0.5304580   0.4324635  )
         8           C   tau(   8) = (   0.4580372   0.4720800   0.0229252  )
         9           C   tau(   9) = (   0.2341003   0.6142040   0.4982314  )
        10           C   tau(  10) = (   0.4948422   0.3892302   0.0892369  )
        11           C   tau(  11) = (   0.2384981   0.8904717   0.4955761  )
        12           C   tau(  12) = (  -0.0008282   0.1123917   0.0856467  )
        13           C   tau(  13) = (   0.3947360   0.8906489   0.5977380  )
        14           C   tau(  14) = (   0.1557890   0.1097029   0.1871645  )
        15           C   tau(  15) = (   0.0756247   0.6098498   0.5975737  )
        16           C   tau(  16) = (   0.3367152   0.3921904   0.1884642  )
        17           C   tau(  17) = (   0.0350715   0.5258264   0.5351012  )
        18           C   tau(  18) = (   0.2948780   0.4753867   0.1254988  )
        19           C   tau(  19) = (   0.0981522   0.4849593   0.4519611  )
        20           C   tau(  20) = (   0.3569104   0.5163900   0.0416029  )
        21           C   tau(  21) = (   0.4248178   0.0994604   0.3833638  )
        22           C   tau(  22) = (   0.1639424   0.9010006   0.7933713  )
        23           C   tau(  23) = (   0.0588120   0.3950355   0.3866953  )
        24           C   tau(  24) = (   0.2984059   0.6050320   0.7961934  )
        25           C   tau(  25) = (   0.7787122   0.9714307   0.4288486  )
        26           C   tau(  26) = (   0.5379730   0.0311503   0.0183277  )
        27           C   tau(  27) = (   0.8806882   0.0117868   0.4489838  )
        28           C   tau(  28) = (   0.6394042   0.9891499   0.0379124  )
        29           C   tau(  29) = (   0.9400787   0.9715829   0.5343281  )
        30           C   tau(  30) = (   0.6997920   0.0283934   0.1231482  )
        31           C   tau(  31) = (   0.6986021   0.5304580   0.4324635  )
        32           C   tau(  32) = (   0.9580382   0.4720800   0.0229252  )
        33           C   tau(  33) = (   0.7341003   0.6142040   0.4982314  )
        34           C   tau(  34) = (   0.9948422   0.3892302   0.0892369  )
        35           C   tau(  35) = (   0.7384981   0.8904717   0.4955761  )
        36           C   tau(  36) = (   0.4991718   0.1123917   0.0856467  )
        37           C   tau(  37) = (   0.8947360   0.8906489   0.5977380  )
        38           C   tau(  38) = (   0.6557880   0.1097029   0.1871645  )
        39           C   tau(  39) = (   0.5756247   0.6098498   0.5975737  )
        40           C   tau(  40) = (   0.8367152   0.3921904   0.1884642  )
        41           C   tau(  41) = (   0.5350715   0.5258264   0.5351012  )
        42           C   tau(  42) = (   0.7948780   0.4753867   0.1254988  )
        43           C   tau(  43) = (   0.5981522   0.4849593   0.4519611  )
        44           C   tau(  44) = (   0.8569104   0.5163900   0.0416029  )
        45           C   tau(  45) = (   0.9248178   0.0994604   0.3833638  )
        46           C   tau(  46) = (   0.6639424   0.9010006   0.7933713  )
        47           C   tau(  47) = (   0.5588110   0.3950355   0.3866953  )
        48           C   tau(  48) = (   0.7984059   0.6050320   0.7961934  )
        49           H   tau(  49) = (   0.2290596   1.0009978   0.3640502  )
        50           H   tau(  50) = (   0.4693669   0.0026958   0.7751545  )
        51           H   tau(  51) = (   0.0198054   1.0002267   0.5533467  )
        52           H   tau(  52) = (   0.3118554   0.6514319   0.4868937  )
        53           H   tau(  53) = (   0.0732386   0.3533532   0.0780726  )
        54           H   tau(  54) = (   0.1594426   0.8563401   0.4835457  )
        55           H   tau(  55) = (   0.4206861   0.1479423   0.0738480  )
        56           H   tau(  56) = (   0.4386511   0.8563902   0.6644572  )
        57           H   tau(  57) = (   0.2006191   0.1433067   0.2536997  )
        58           H   tau(  58) = (   0.0290492   0.6438591   0.6626884  )
        59           H   tau(  59) = (   0.2907535   0.3580349   0.2539083  )
        60           H   tau(  60) = (   0.9693669   0.0026958   0.7751545  )
[...]
       102           O   tau( 102) = (   0.8551690   0.6519036   0.7240468  )
       103           O   tau( 103) = (   0.8707656   0.1477170   0.3098797  )
       104           O   tau( 104) = (   0.6091506   0.8535652   0.7199135  )
       105           O   tau( 105) = (   0.9642788   0.3566669   0.3968154  )
       106           O   tau( 106) = (   0.7033039   0.6423280   0.8050417  )
       107           O   tau( 107) = (   0.5200847   0.1353504   0.3952413  )
       108           O   tau( 108) = (   0.7588616   0.8639860   0.8046490  )
       109           O   tau( 109) = (   0.5393362   0.0062279   0.5564670  )
       110           O   tau( 110) = (   0.2987240   0.9924746   0.1445921  )
       111           O   tau( 111) = (   0.2613722   0.4952750   0.3519731  )
       112           O   tau( 112) = (   0.1964508   0.5142019   0.1465894  )
       113           O   tau( 113) = (   0.7186717   0.0061838   0.3466214  )
       114           O   tau( 114) = (   0.7987240   0.9924746   0.1445921  )
       115           O   tau( 115) = (   0.4369778   0.4860649   0.5558090  )
       116           O   tau( 116) = (   0.0024461   0.5076896   0.7638603  )

     number of k points=     1  Marzari-Vanderbilt smearing, width (Ry)=  0.2000
                       cart. coord. in units 2pi/alat
        k(    1) = (   0.0000000   0.0000000   0.0000000), wk =   1.0000000

     Check: negative core charge=   -0.000145

     Initial potential from superposition of free atoms

     starting charge  447.99668, renormalised to  448.00000
     Starting wfcs are  388 randomized atomic wfcs

     Self-consistent Calculation

     iteration #  1     ecut=   100.00 Ry     beta= 0.70
     Davidson diagonalization with overlap
     ethr =  1.00E-02,  avg # of iterations =  4.0

[...]
     atom:   52    charge:    0.3003    magn:   -0.0006    constr:    0.0000
     atom:   53    charge:    0.3197    magn:   -0.0007    constr:    0.0000
     atom:   54    charge:    0.3868    magn:   -0.0012    constr:    0.0000
     atom:   55    charge:    0.3498    magn:   -0.0011    constr:    0.0000
     atom:   56    charge:    0.3905    magn:   -0.0009    constr:    0.0000
     atom:   57    charge:    0.3964    magn:   -0.0008    constr:    0.0000
     atom:   58    charge:    0.2314    magn:   -0.0003    constr:    0.0000
     atom:   59    charge:    0.3057    magn:   -0.0005    constr:    0.0000
     atom:   60    charge:    0.3082    magn:   -0.0010    constr:    0.0000
[...]
     atom:  102    charge:    1.9059    magn:    0.0377    constr:    0.0000
     atom:  103    charge:    1.6370    magn:    0.0273    constr:    0.0000
     atom:  104    charge:    1.5830    magn:    0.0262    constr:    0.0000
     atom:  105    charge:    1.7807    magn:    0.0331    constr:    0.0000
     atom:  106    charge:    1.8454    magn:    0.0381    constr:    0.0000
     atom:  107    charge:    1.9146    magn:    0.0313    constr:    0.0000
     atom:  108    charge:    1.8973    magn:    0.0351    constr:    0.0000
     atom:  109    charge:    1.7646    magn:    0.0101    constr:    0.0000
     atom:  110    charge:    1.6810    magn:    0.0113    constr:    0.0000
     atom:  111    charge:    0.8148    magn:    0.0076    constr:    0.0000
     atom:  112    charge:    1.2975    magn:    0.0080    constr:    0.0000
     atom:  113    charge:    0.4389    magn:    0.0045    constr:    0.0000
     atom:  114    charge:    1.6460    magn:    0.0113    constr:    0.0000
     atom:  115    charge:    1.6908    magn:    0.0093    constr:    0.0000
     atom:  116    charge:    0.5477    magn:    0.0061    constr:    0.0000

     End of self-consistent calculation

 ------ SPIN UP ------------

[...]

 ------ SPIN DOWN ----------

          k = 0.0000 0.0000 0.0000 ( 91663 PWs)   bands (ev):

   -22.0431 -22.0006 -21.9562 -21.9347 -21.8714 -21.8574 -21.8272 -21.7900
   -21.7017 -21.6642 -21.6232 -21.5931 -21.5797 -21.5640 -21.5305 -21.5015
   -18.9712 -18.9374 -18.9310 -18.9134 -18.8997 -18.8667 -18.8213 -18.8163
   -18.8020 -18.7940 -18.7808 -18.7491 -18.7331 -18.7018 -18.6884 -18.6803
   -15.0247 -14.9764 -14.9610 -14.9367 -14.9161 -14.9091 -14.9075 -14.8639
   -13.5782 -13.5437 -13.5291 -13.5177 -13.4961 -13.4883 -13.4647 -13.4072
   -11.4355 -11.3887 -11.3603 -11.3319 -11.2902 -11.2835 -11.2603 -11.2200
   -10.8750 -10.8431 -10.8210 -10.7951 -10.7743 -10.7421 -10.7291 -10.6617
    -9.1989  -9.1664  -9.0206  -8.9294  -8.9124  -8.8257  -8.8071  -8.7628
    -8.7287  -8.6928  -8.6857  -8.6472  -8.6271  -8.6093  -8.5702  -8.5406
    -7.7641  -7.4254  -7.3723  -7.3203  -7.2851  -7.2522  -7.2143  -7.1644
    -7.1321  -7.1112  -7.0090  -6.9712  -6.8409  -6.8001  -6.7100  -6.6397
    -6.4047  -6.3355  -6.3294  -6.2870  -6.2603  -6.2379  -6.2338  -6.1631
    -6.1092  -6.0793  -6.0276  -5.9873  -5.9604  -5.9071  -5.8460  -5.8316
    -5.8185  -5.7982  -5.7822  -5.7451  -5.7083  -5.6846  -5.6822  -5.6221
    -5.6101  -5.5162  -5.4885  -5.4279  -5.3403  -5.3204  -5.3064  -5.2717
    -5.2589  -5.2220  -5.1932  -5.1417  -5.1328  -5.1059  -4.8990  -4.7922
    -4.5258  -4.4716  -4.4086  -4.3409  -4.3150  -4.2929  -4.2287  -4.1903
    -4.1742  -4.1563  -4.1149  -4.0856  -4.0480  -4.0286  -3.9989  -3.9950
    -3.9526  -3.8866  -3.8802  -3.8677  -3.7657  -3.7302  -3.7075  -3.6665
    -3.5987  -3.5700  -3.4344  -3.3519  -3.1870  -3.1212  -2.9938  -2.9714
    -2.7511  -2.6621  -2.6402  -2.5368  -2.4322  -2.4165  -2.4126  -2.4046
    -2.2730  -2.2386  -2.2015  -2.1832  -2.1686  -2.1453  -2.1367  -2.0625
    -2.0076  -1.9768  -1.9174  -1.8421  -1.8053  -1.7696  -1.7376  -1.7180
    -1.6927  -1.6537  -1.6133  -1.5848  -1.5567  -1.4489  -1.3256  -1.2623
    -1.0015  -0.8836  -0.8763  -0.8111  -0.7649  -0.7519  -0.7451  -0.7367
    -0.6897  -0.6594  -0.6452  -0.6352  -0.6274  -0.5750  -0.5566  -0.5185
    -0.4997  -0.4496  -0.3921  -0.2057   0.9510   0.9990   1.0750   1.1579
     1.2848   1.3440   1.3870   1.3977   2.4029   2.4816   2.4958   2.5028
     2.5270   2.5855   2.6160   2.6520   3.7342   3.7598   3.9214   3.9397
     3.9776   4.0372   4.0713   4.1071   4.1486   4.7206   4.8181   4.8825
     4.9290   4.9417   4.9721   5.0011   5.0472   5.0783   5.1814   5.2264
     5.4817   5.7338   5.7750   5.7967   5.8685   6.0236   6.0845   6.2143
     6.2796   6.3623   6.4771   6.6946   6.8760   6.9748   7.0227   7.0770
     7.2123   7.2472

     the spin up/dw Fermi energies are     0.8802    0.5123 ev

!    total energy              =   -1878.49807443 Ry
     Harris-Foulkes estimate   =   -1878.49807443 Ry
     estimated scf accuracy    <          1.0E-08 Ry

     The total energy is the sum of the following terms:

     one-electron contribution =   -2726.23491336 Ry
     hartree contribution      =    1528.09725021 Ry
     xc contribution           =    -549.13194841 Ry
     ewald contribution        =    -133.54211494 Ry
     Dispersion Correction     =      -0.50396143 Ry
     smearing contrib. (-TS)   =       2.81761351 Ry

     total magnetization       =     8.00 Bohr mag/cell
     absolute magnetization    =     8.26 Bohr mag/cell

     convergence has been achieved in  10 iterations

     Forces acting on atoms (cartesian axes, Ry/au):

     atom    1 type  1   force =     0.00035829    0.00005016   -0.00013734
     atom    2 type  1   force =    -0.00012369    0.00001907    0.00009583
     atom    3 type  1   force =     0.00003394   -0.00032897   -0.00004467
     atom    4 type  1   force =     0.00002020    0.00034708   -0.00034694
     atom    5 type  1   force =     0.00038948   -0.00012935    0.00009300
     atom    6 type  1   force =    -0.00000645    0.00029194    0.00002237
     atom    7 type  1   force =     0.00031716   -0.00010436   -0.00049203
     atom    8 type  1   force =     0.00016498   -0.00017412   -0.00031339
     atom    9 type  1   force =     0.00011928   -0.00027159    0.00026190
     atom   10 type  1   force =     0.00014895   -0.00021573    0.00022540
     atom   11 type  1   force =    -0.00022105   -0.00008183   -0.00032266
     atom   12 type  1   force =    -0.00021522    0.00030178    0.00027999
     atom   13 type  1   force =    -0.00003205    0.00010898    0.00046866
     atom   14 type  1   force =     0.00018194   -0.00017552    0.00016593
     atom   15 type  1   force =     0.00059924    0.00026279   -0.00028321
     atom   16 type  1   force =    -0.00002530    0.00005342   -0.00005251
     atom   17 type  1   force =     0.00062396   -0.00030541    0.00037925
     atom   18 type  1   force =     0.00015260    0.00039295   -0.00020892
     atom   19 type  1   force =    -0.00006015    0.00014491    0.00005484
     atom   20 type  1   force =     0.00018559   -0.00006847    0.00015907
     atom   21 type  1   force =     0.00014512   -0.00020929   -0.00003154
     atom   22 type  1   force =    -0.00033887    0.00037871   -0.00014379
     atom   23 type  1   force =     0.00002751    0.00054498   -0.00025823
     atom   24 type  1   force =    -0.00011160   -0.00026732    0.00009145
     atom   25 type  1   force =    -0.00041583    0.00010644    0.00011276
     atom   26 type  1   force =     0.00056078    0.00054582    0.00026207
     atom   27 type  1   force =     0.00014414   -0.00025694   -0.00005567
     atom   28 type  1   force =    -0.00053285   -0.00027956    0.00020397
     atom   29 type  1   force =    -0.00037853    0.00029976   -0.00013341
     atom   30 type  1   force =     0.00013550   -0.00005132    0.00029541
     atom   31 type  1   force =    -0.00024214    0.00005325    0.00031157
     atom   32 type  1   force =     0.00019607    0.00030283    0.00004647
     atom   33 type  1   force =    -0.00012575    0.00014289   -0.00024836
     atom   34 type  1   force =    -0.00015675    0.00022222    0.00010686
     atom   35 type  1   force =    -0.00005504    0.00020611   -0.00034434
     atom   36 type  1   force =     0.00013878   -0.00058034   -0.00005545
     atom   37 type  1   force =     0.00022163    0.00005115    0.00032304
     atom   38 type  1   force =    -0.00007095    0.00032248   -0.00028769
     atom   39 type  1   force =    -0.00002603   -0.00012391   -0.00023576
     atom   40 type  1   force =     0.00034239    0.00041372   -0.00031433
     atom   41 type  1   force =     0.00016476    0.00006370    0.00018983
     atom   42 type  1   force =     0.00012115   -0.00021643   -0.00010341
     atom   43 type  1   force =     0.00037215   -0.00015244   -0.00019685
     atom   44 type  1   force =     0.00031314   -0.00006097   -0.00032908
     atom   45 type  1   force =    -0.00039018   -0.00021416   -0.00033745
     atom   46 type  1   force =     0.00005409   -0.00012024    0.00005398
     atom   47 type  1   force =    -0.00020185    0.00005313   -0.00026891
     atom   48 type  1   force =     0.00000736   -0.00024695    0.00006084
     atom   49 type  2   force =     0.00036060   -0.00013776   -0.00039349
     atom   50 type  2   force =     0.00009209   -0.00025565    0.00004126
     atom   51 type  2   force =    -0.00045892   -0.00019744   -0.00018096
     atom   52 type  2   force =    -0.00030761    0.00011118   -0.00044964
     atom   53 type  2   force =    -0.00031634    0.00003155    0.00022396
     atom   54 type  2   force =     0.00017648   -0.00033893   -0.00013025
     atom   55 type  2   force =    -0.00001086   -0.00021382    0.00013546
     atom   56 type  2   force =     0.00001789   -0.00011321    0.00014823
     atom   57 type  2   force =     0.00032709   -0.00000606    0.00047351
     atom   58 type  2   force =    -0.00023854    0.00035356   -0.00001112
     atom   59 type  2   force =     0.00041321   -0.00021235    0.00010137
     atom   60 type  2   force =     0.00018201   -0.00019872    0.00022515
[...]
     atom  102 type  5   force =     0.00015602   -0.00046717    0.00037151
     atom  103 type  5   force =    -0.00004038   -0.00015261    0.00016194
     atom  104 type  5   force =     0.00006777   -0.00010506   -0.00009115
     atom  105 type  5   force =    -0.00047472   -0.00010334   -0.00034035
     atom  106 type  5   force =     0.00018544   -0.00011498    0.00037138
     atom  107 type  5   force =    -0.00020824    0.00001352   -0.00016435
     atom  108 type  5   force =    -0.00011975    0.00021791   -0.00002254
     atom  109 type  5   force =    -0.00010833   -0.00022327   -0.00020123
     atom  110 type  5   force =    -0.00016680   -0.00013583    0.00001525
     atom  111 type  5   force =     0.00020298   -0.00004845    0.00083479
     atom  112 type  5   force =    -0.00041912   -0.00032012   -0.00050951
     atom  113 type  5   force =    -0.00008283   -0.00055406    0.00058915
     atom  114 type  5   force =    -0.00039245    0.00054982   -0.00052794
     atom  115 type  5   force =     0.00024291    0.00055005   -0.00032954
     atom  116 type  5   force =    -0.00025599   -0.00026999    0.00034391

     Total force =     0.004980     Total SCF correction =     0.000263

     bfgs converged in  90 scf cycles and  89 bfgs steps
     (criteria: energy <  1.0E-04 Ry, force <  1.0E-03 Ry/Bohr)

     End of BFGS Geometry Optimization

     Final energy   =   -1878.4980744289 Ry
Begin final coordinates

ATOMIC_POSITIONS (crystal)
C             0.2892856332        0.9706561694        0.5279196816
C             0.0510725791        0.0292040553        0.0216027210
C             0.3932577252        0.0086855702        0.5476649606
C             0.1518700342        0.9869771294        0.0507334128
C             0.4538878330        0.9621828585        0.6527381033
C             0.2106583570        0.0344582551        0.1567143352
C             0.2086822392        0.5211170464        0.5358762327
C             0.4580684703        0.4668508095        0.0244851722
C             0.2412647826        0.6084503371        0.6163497761
C             0.4995374711        0.3862808500        0.1051537502
C             0.2479441050        0.8901252785        0.6067097155
C             0.0090518461        0.1128272337        0.0952253229
C             0.4058469152        0.8810015373        0.7293808657
C             0.1606028272        0.1178669847        0.2293215021
C             0.0722697014        0.6219063905        0.7047547634
C             0.3404862205        0.3748146067        0.2171559411
C             0.0323898692        0.5422784614        0.6202769436
C             0.2934363310        0.4572256480        0.1397737787
C             0.0987874875        0.4914180851        0.5325315556
C             0.3540850399        0.5048017185        0.0390205553
C             0.4351656337        0.0934607406        0.4641865060
C             0.1919217209        0.8975536572        0.9726129870
C             0.0590914144        0.4030901605        0.4508222662
C             0.3141488510        0.5925126574        0.9561632739
C             0.7880973151        0.9836386807        0.5430328601
C             0.5484452238        0.0316155155        0.0184848920
C             0.8988901531        0.0109146743        0.5443676674
C             0.6515391767        0.9923973309        0.0407661417
C             0.9643849503        0.9586987540        0.6355695447
C             0.7125897989        0.0391274563        0.1456620440
C             0.7055475627        0.5224367120        0.5318258402
C             0.9575502489        0.4823832809        0.0433487577
C             0.7456582178        0.6075051637        0.6069770419
C             0.9881889719        0.3894211955        0.1151266647
C             0.7545688008        0.8949427203        0.6189534540
C             0.5064720644        0.1118808930        0.0968844238
C             0.9229470394        0.8793240510        0.7170522147
C             0.6642854759        0.1220732624        0.2201848547
C             0.5895430315        0.6166013709        0.7244486269
C             0.8210428746        0.3775473511        0.2089466896
C             0.5423374615        0.5318298176        0.6504018219
C             0.7817098716        0.4612178360        0.1305398706
C             0.6029979668        0.4821771236        0.5510414322
C             0.8482478681        0.5143867189        0.0450420517
C             0.9393970942        0.0967681440        0.4613938601
C             0.6907379170        0.9045398500        0.9605370850
C             0.5624744874        0.3924659151        0.4710776094
C             0.8090749588        0.6042528590        0.9662822284
H             0.2376864650        1.0041601797        0.4519157532
H             0.4972083869       -0.0017649754        0.9421522691
H             0.0477642871        0.9815424505        0.6482933173
H             0.3225570193        0.6387309131        0.6112566881
H             0.0677515005        0.3560667090        0.1041724708
H             0.1673325247        0.8594380064        0.5923947606
H             0.4261073086        0.1426616912        0.0816310306
H             0.4508842576        0.8463941772        0.8110820758
H             0.2028187925        0.1519267824        0.3134129634
H             0.0230053409        0.6573038790        0.7786506211
H             0.2948405534        0.3393853691        0.2951022189
H             1.0026967331       -0.0033096610        0.9420222640
[...]
O             0.8669916262        0.6527095362        0.8822540846
O             0.8836651882        0.1356468524        0.3633597092
O             0.6332830130        0.8660494179        0.8633488786
O             0.9683388135        0.3592130424        0.4698286577
O             0.7133732693        0.6405607869        0.9736260204
O             0.5288149244        0.1329381507        0.4769907368
O             0.7802750357        0.8581305012        0.9787378021
O             0.5523508173       -0.0072081916        0.6812529222
O             0.3070031642        1.0028963931        0.1897908263
O             0.2774990326        0.4663663592        0.4680834712
O             0.1947047021        0.4873908569        0.1645329462
O             0.7200087593        0.0417898250        0.4755272194
O             0.8092031681        1.0075025486        0.1769993517
O             0.4441713512        0.5009768932        0.6765436932
O             0.0273502869        0.5388990011        0.9801102257
End final coordinates

     Writing output data file ./QE_relaxation_results/pbesol_relax/NiPyC2_relax_sc211_meta_functionalized_OH_pbesol_relax.save/

     General routines

     Parallel routines

   This run was terminated on:  10:32:29  22Jun2020

   JOB DONE.
QE finished Mon Jun 22 10:32:29 PDT 2020