     Program PWSCF v.6.5 starts on 25Jun2020 at 12:13: 0

     K-points division:     npool     =       2
     R & G space division:  proc/nbgrp/npool/nimage =      16
     Reading input from QE_input_scripts/pw.NiPyC2_relax_sc211_meta_functionalized_N-C-O_pbesol_relax.in
Warning: card &CELL ignored
Warning: card    CELL_DYNAMICS = 'BFGS' ignored
Warning: card    CELL_DOFREE = 'XYZ' ignored
Warning: card / ignored

     Current dimensions of program PWSCF are:
     Max number of different atomic species (ntypx) = 10
     Max number of k-points (npk) =  40000
     Max angular momentum in pseudopotentials (lmaxx) =  3

     Parameters for Dispersion (Grimme-D2) Correction:
       atom      VdW radius       C_6

        C          2.744         60.710
        H          1.892          4.857
        N          2.640         42.670
        Ni         2.952        374.666
        O          2.536         24.284

     gamma-point specific algorithms are used

     Subspace diagonalization in iterative solution of the eigenvalue problem:
     a serial algorithm will be used

     bravais-lattice index     =            0
     lattice parameter (alat)  =      23.6322  a.u.
     unit-cell volume          =   10858.6228 (a.u.)^3
     number of atoms/cell      =          124
     number of atomic types    =            5
     number of electrons       =       512.00 (up: 260.00, down: 252.00)
     number of Kohn-Sham states=          312
     kinetic-energy cutoff     =     100.0000  Ry
     charge density cutoff     =     400.0000  Ry
     convergence threshold     =      1.0E-06
     mixing beta               =       0.7000
     number of iterations used =            8  local-TF  mixing
     Exchange-correlation= PBESOL
                           (   1   4  10   8   0   0   0)
     nstep                     =          200

     celldm(1)=  23.632159  celldm(2)=   0.000000  celldm(3)=   0.000000
     celldm(4)=   0.000000  celldm(5)=   0.000000  celldm(6)=   0.000000

     crystal axes: (cart. coord. in units of alat)
               a(1) = (   1.000000   0.000000   0.000000 )
               a(2) = (   0.000000   1.001423   0.000000 )
               a(3) = (  -0.018199   0.000000   0.821574 )

     reciprocal axes: (cart. coord. in units 2 pi/alat)
               b(1) = (  1.000000  0.000000  0.022152 )
               b(2) = (  0.000000  0.998579  0.000000 )
               b(3) = (  0.000000  0.000000  1.217175 )

     PseudoPot. # 1 for C  read from file:
     ./pseudo/C.pbesol-nc.UPF
     MD5 check sum: ce26087537ded160c8d400e183a8bf42
     Pseudo is Norm-conserving, Zval =  4.0
     Generated using "atomic" code by A. Dal Corso v.6.5
     Using radial grid of 1073 points,  1 beta functions with:
                l(1) =   1

     PseudoPot. # 2 for H  read from file:
     ./pseudo/H.pbesol-n-nc.UPF
     MD5 check sum: 7995ef24074557c85b430109caaacc09
     Pseudo is Norm-conserving, Zval =  1.0
     Generated using "atomic" code by A. Dal Corso v.6.5
     Using radial grid of  929 points,  0 beta functions with:

     PseudoPot. # 3 for N  read from file:
     ./pseudo/N.pbesol-nc.UPF
     MD5 check sum: e18cc5e4b8a5600c1a19b30c2cab1ca0
     Pseudo is Norm-conserving, Zval =  5.0
     Generated using "atomic" code by A. Dal Corso v.6.5
     Using radial grid of 1085 points,  1 beta functions with:
                l(1) =   1

     PseudoPot. # 4 for Ni read from file:
     ./pseudo/Ni.pbesol-n-nc.UPF
     MD5 check sum: 623411631e0c2eb7c0b2b9815547d2d9
     Pseudo is Norm-conserving + core correction, Zval = 10.0
     Generated using "atomic" code by A. Dal Corso v.6.5
     Using radial grid of 1195 points,  2 beta functions with:
                l(1) =   1
                l(2) =   2

     PseudoPot. # 5 for O  read from file:
     ./pseudo/O.pbesol-nc.UPF
     MD5 check sum: 73d10e7e91dbfcbe8a7e362101007f84
     Pseudo is Norm-conserving, Zval =  6.0
     Generated using "atomic" code by A. Dal Corso v.6.5
     Using radial grid of 1095 points,  1 beta functions with:
                l(1) =   1

     atomic species   valence    mass     pseudopotential
        C              4.00    12.01070     C ( 1.00)
        H              1.00     1.00794     H ( 1.00)
        N              5.00    14.00670     N ( 1.00)
        Ni            10.00    58.69340     Ni( 1.00)
        O              6.00    15.99940     O ( 1.00)

     Starting magnetic structure
     atomic species   magnetization
        C            0.000
        H            0.000
        N            0.000
        Ni           0.250
        O            0.000

     No symmetry found

   Cartesian axes

     site n.     atom                  positions (alat units)
         1           C   tau(   1) = (   0.2787122   0.9714307   0.4288486  )
         2           C   tau(   2) = (   0.0379730   0.0311503   0.0183277  )
         3           C   tau(   3) = (   0.3806882   0.0117868   0.4489838  )
         4           C   tau(   4) = (   0.1394042   0.9891499   0.0379124  )
         5           C   tau(   5) = (   0.4400787   0.9715829   0.5343281  )
         6           C   tau(   6) = (   0.1997920   0.0283934   0.1231482  )
         7           C   tau(   7) = (   0.1986011   0.5304580   0.4324635  )
         8           C   tau(   8) = (   0.4580372   0.4720800   0.0229252  )
         9           C   tau(   9) = (   0.2341003   0.6142040   0.4982314  )
        10           C   tau(  10) = (   0.4948422   0.3892302   0.0892369  )
        11           C   tau(  11) = (   0.2384981   0.8904717   0.4955761  )
        12           C   tau(  12) = (  -0.0008282   0.1123917   0.0856467  )
        13           C   tau(  13) = (   0.3947360   0.8906489   0.5977380  )
        14           C   tau(  14) = (   0.1557890   0.1097029   0.1871645  )
        15           C   tau(  15) = (   0.0756247   0.6098498   0.5975737  )
        16           C   tau(  16) = (   0.3367152   0.3921904   0.1884642  )
        17           C   tau(  17) = (   0.0350715   0.5258264   0.5351012  )
        18           C   tau(  18) = (   0.2948780   0.4753867   0.1254988  )
        19           C   tau(  19) = (   0.0981522   0.4849593   0.4519611  )
        20           C   tau(  20) = (   0.3569104   0.5163900   0.0416029  )
        21           C   tau(  21) = (   0.4248178   0.0994604   0.3833638  )
        22           C   tau(  22) = (   0.1639424   0.9010006   0.7933713  )
        23           C   tau(  23) = (   0.0588120   0.3950355   0.3866953  )
        24           C   tau(  24) = (   0.2984059   0.6050320   0.7961934  )
        25           C   tau(  25) = (   0.7787122   0.9714307   0.4288486  )
        26           C   tau(  26) = (   0.5379730   0.0311503   0.0183277  )
        27           C   tau(  27) = (   0.8806882   0.0117868   0.4489838  )
        28           C   tau(  28) = (   0.6394042   0.9891499   0.0379124  )
        29           C   tau(  29) = (   0.9400787   0.9715829   0.5343281  )
        30           C   tau(  30) = (   0.6997920   0.0283934   0.1231482  )
        31           C   tau(  31) = (   0.6986021   0.5304580   0.4324635  )
        32           C   tau(  32) = (   0.9580382   0.4720800   0.0229252  )
        33           C   tau(  33) = (   0.7341003   0.6142040   0.4982314  )
        34           C   tau(  34) = (   0.9948422   0.3892302   0.0892369  )
        35           C   tau(  35) = (   0.7384981   0.8904717   0.4955761  )
        36           C   tau(  36) = (   0.4991718   0.1123917   0.0856467  )
        37           C   tau(  37) = (   0.8947360   0.8906489   0.5977380  )
        38           C   tau(  38) = (   0.6557880   0.1097029   0.1871645  )
        39           C   tau(  39) = (   0.5756247   0.6098498   0.5975737  )
        40           C   tau(  40) = (   0.8367152   0.3921904   0.1884642  )
        41           C   tau(  41) = (   0.5350715   0.5258264   0.5351012  )
        42           C   tau(  42) = (   0.7948780   0.4753867   0.1254988  )
        43           C   tau(  43) = (   0.5981522   0.4849593   0.4519611  )
        44           C   tau(  44) = (   0.8569104   0.5163900   0.0416029  )
        45           C   tau(  45) = (   0.9248178   0.0994604   0.3833638  )
        46           C   tau(  46) = (   0.6639424   0.9010006   0.7933713  )
        47           C   tau(  47) = (   0.5588110   0.3950355   0.3866953  )
        48           C   tau(  48) = (   0.7984059   0.6050320   0.7961934  )
        49           C   tau(  49) = (   0.1222485   0.9783916   0.3221195  )
        50           C   tau(  50) = (   0.8628798   0.0271195   0.7336716  )
        51           C   tau(  51) = (   0.3536351   0.5331638   0.3236280  )
        52           C   tau(  52) = (   0.5985030   0.4761848   0.7407979  )
        53           C   tau(  53) = (   0.6253538   0.9730400   0.3174982  )
        54           C   tau(  54) = (   0.3660498   0.0324481   0.7290683  )
        55           C   tau(  55) = (   0.3699494   0.5194834   0.6275160  )
        56           C   tau(  56) = (   0.0985040   0.4761858   0.7407987  )
        57           H   tau(  57) = (   0.0198054   1.0002267   0.5533467  )
        58           H   tau(  58) = (   0.2791988   1.0000865   0.1418054  )
        59           H   tau(  59) = (   0.3118554   0.6514319   0.4868937  )
        60           H   tau(  60) = (   0.0732386   0.3533532   0.0780726  )
[...]
       110           O   tau( 110) = (   0.8551690   0.6519036   0.7240468  )
       111           O   tau( 111) = (   0.8707656   0.1477170   0.3098797  )
       112           O   tau( 112) = (   0.6091506   0.8535652   0.7199135  )
       113           O   tau( 113) = (   0.9642788   0.3566669   0.3968154  )
       114           O   tau( 114) = (   0.7033039   0.6423280   0.8050417  )
       115           O   tau( 115) = (   0.5200847   0.1353504   0.3952413  )
       116           O   tau( 116) = (   0.7588616   0.8639860   0.8046490  )
       117           O   tau( 117) = (   0.0335883   0.9469119   0.3047014  )
       118           O   tau( 118) = (   0.7746465   0.0600193   0.7167134  )
       119           O   tau( 119) = (   0.4383124   0.5725238   0.3027559  )
       120           O   tau( 120) = (   0.6866039   0.4425380   0.7246384  )
       121           O   tau( 121) = (   0.5394341   0.9368356   0.2959992  )
       122           O   tau( 122) = (   0.2806155   0.0700536   0.7080450  )
       123           O   tau( 123) = (   0.3128736   0.5548727   0.6956705  )
       124           O   tau( 124) = (   0.1866049   0.4425390   0.7246400  )

     number of k points=     1  Marzari-Vanderbilt smearing, width (Ry)=  0.2000
                       cart. coord. in units 2pi/alat
        k(    1) = (   0.0000000   0.0000000   0.0000000), wk =   1.0000000

     Check: negative core charge=   -0.000145

     Initial potential from superposition of free atoms

     starting charge  511.99638, renormalised to  512.00000
     Starting wfcs are  444 randomized atomic wfcs

     Self-consistent Calculation

     iteration #  1     ecut=   100.00 Ry     beta= 0.70
     Davidson diagonalization with overlap
     ethr =  1.00E-02,  avg # of iterations =  4.0

[...]
     atom:   57    charge:    0.4481    magn:   -0.0012    constr:    0.0000
     atom:   58    charge:    0.3402    magn:   -0.0009    constr:    0.0000
     atom:   59    charge:    0.4462    magn:   -0.0009    constr:    0.0000
     atom:   60    charge:    0.3778    magn:   -0.0009    constr:    0.0000
[...]
     atom:  110    charge:    2.8485    magn:    0.0502    constr:    0.0000
     atom:  111    charge:    2.7382    magn:    0.0486    constr:    0.0000
     atom:  112    charge:    2.8829    magn:    0.0529    constr:    0.0000
     atom:  113    charge:    2.6210    magn:    0.0487    constr:    0.0000
     atom:  114    charge:    2.7421    magn:    0.0496    constr:    0.0000
     atom:  115    charge:    2.8567    magn:    0.0538    constr:    0.0000
     atom:  116    charge:    2.8064    magn:    0.0544    constr:    0.0000
     atom:  117    charge:    1.9449    magn:    0.0068    constr:    0.0000
     atom:  118    charge:    1.4187    magn:    0.0058    constr:    0.0000
     atom:  119    charge:    2.7335    magn:    0.0095    constr:    0.0000
     atom:  120    charge:    2.5313    magn:    0.0081    constr:    0.0000
     atom:  121    charge:    2.2953    magn:    0.0080    constr:    0.0000
     atom:  122    charge:    2.4399    magn:    0.0080    constr:    0.0000
     atom:  123    charge:    0.0578    magn:    0.0002    constr:    0.0000
     atom:  124    charge:    0.0122    magn:    0.0000    constr:    0.0000

     End of self-consistent calculation

 ------ SPIN UP ------------

[...]

 ------ SPIN DOWN ----------

          k = 0.0000 0.0000 0.0000 ( 91663 PWs)   bands (ev):

   -21.7541 -21.6940 -21.6841 -21.6759 -21.6600 -21.6533 -21.6445 -21.4476
   -21.0508 -21.0416 -21.0336 -21.0072 -20.9319 -20.9308 -20.9146 -20.9076
   -18.5608 -18.5298 -18.5134 -18.5086 -18.4960 -18.4799 -18.4567 -18.4097
   -18.0057 -18.0015 -17.9959 -17.9788 -17.9679 -17.9581 -17.9535 -17.9397
   -17.8723 -17.8353 -17.8251 -17.8217 -17.7756 -17.7488 -17.7317 -17.7250
   -14.3798 -14.3110 -14.2953 -14.2796 -14.2687 -14.2623 -14.2443 -14.2339
   -13.1824 -13.0743 -13.0163 -13.0100 -13.0002 -12.9540 -12.9032 -12.8457
   -11.0402 -10.9107 -10.8515 -10.8462 -10.8220 -10.8005 -10.7745 -10.7367
   -10.4887 -10.4103 -10.3953 -10.3792 -10.3665 -10.3337 -10.2989 -10.2902
    -8.7093  -8.5249  -8.5141  -8.4901  -8.4433  -8.4018  -8.3708  -8.3418
    -7.8746  -7.8013  -7.7778  -7.7206  -7.7115  -7.6970  -7.6576  -7.5560
    -6.7991  -6.6474  -6.6138  -6.6066  -6.5884  -6.5715  -6.5633  -6.5344
    -6.5101  -6.3401  -6.3267  -6.2806  -6.2253  -6.1901  -6.1871  -6.1676
    -6.1358  -6.1034  -6.0904  -6.0127  -5.9743  -5.9480  -5.8797  -5.8121
    -5.7933  -5.7673  -5.7578  -5.7089  -5.5953  -5.5815  -5.4849  -5.4765
    -5.4568  -5.4369  -5.4202  -5.3522  -5.3276  -5.3180  -5.2834  -5.2629
    -5.2197  -5.2000  -5.1647  -5.1452  -5.1294  -5.1178  -5.0841  -5.0736
    -5.0177  -4.9643  -4.9422  -4.9350  -4.8990  -4.8832  -4.8545  -4.8329
    -4.7569  -4.7091  -4.6391  -4.6355  -4.6074  -4.5459  -4.5377  -4.4868
    -4.4632  -4.4481  -4.4149  -4.4008  -4.3821  -4.3591  -4.3247  -4.2769
    -4.1782  -4.0828  -4.0516  -3.9593  -3.9277  -3.9123  -3.8547  -3.6669
    -3.4017  -3.2736  -3.1583  -3.1296  -3.0799  -3.0496  -3.0067  -2.9739
    -2.9483  -2.9258  -2.9086  -2.7724  -2.7476  -2.6946  -2.6726  -2.6175
    -2.5891  -2.5694  -2.5184  -2.4991  -2.4841  -2.4639  -2.4599  -2.4440
    -2.2943  -2.2825  -2.2464  -2.1450  -1.9546  -1.9318  -1.9109  -1.8848
    -1.5740  -1.4812  -1.4409  -1.4197  -1.3611  -1.3533  -1.3273  -1.3191
    -1.2762  -1.2545  -1.2324  -1.2283  -1.2156  -1.1919  -1.1583  -1.1410
    -1.1174  -1.0486  -1.0201  -0.9414  -0.9016  -0.8763  -0.8618  -0.7994
    -0.7157  -0.6897  -0.6670  -0.6332  -0.5566  -0.5119  -0.3623  -0.3303
    -0.1739  -0.0881  -0.0312  -0.0176   0.0269   0.0910   0.0968   0.1140
     0.1209   0.1353   0.1417   0.1529   0.2082   0.2136   0.2620   0.2749
     0.2919   0.3612   0.3755   0.4525   1.8293   1.8618   1.8787   1.9337
     2.0845   2.1410   2.1644   2.1813   3.1731   3.2286   3.2794   3.3063
     3.3452   3.3911   3.4287   3.4489   3.9537   4.0461   4.1386   4.1726
     4.2387   4.2906   4.3327   4.5201   4.8161   5.0500   5.0857   5.0990
     5.1591   5.1861   5.2356   5.4792   5.7429   5.7672   5.8411   5.8634
     5.8825   5.9141   5.9605   5.9797   6.0480   6.1229   6.1966   6.2792
     6.5059   6.6355   6.7118   6.7530   6.8038   6.8407   6.8744   6.9116
     6.9284   6.9567   7.0002   7.0832   7.1474   7.1754   7.2010   7.4495

     the spin up/dw Fermi energies are     1.6502    1.3132 ev

!    total energy              =   -2118.35469867 Ry
     Harris-Foulkes estimate   =   -2118.35469867 Ry
     estimated scf accuracy    <          4.8E-09 Ry

     The total energy is the sum of the following terms:

     one-electron contribution =   -2382.78077016 Ry
     hartree contribution      =    1389.43678215 Ry
     xc contribution           =    -609.82678141 Ry
     ewald contribution        =    -517.60819184 Ry
     Dispersion Correction     =      -0.63680346 Ry
     smearing contrib. (-TS)   =       3.06106605 Ry

     total magnetization       =     8.00 Bohr mag/cell
     absolute magnetization    =     8.27 Bohr mag/cell

     convergence has been achieved in  11 iterations

     Forces acting on atoms (cartesian axes, Ry/au):

     atom    1 type  1   force =     0.00045295   -0.00023413    0.00029098
     atom    2 type  1   force =    -0.00016842    0.00007736   -0.00018954
     atom    3 type  1   force =     0.00020879   -0.00006129   -0.00038066
     atom    4 type  1   force =     0.00026339   -0.00016105   -0.00005193
     atom    5 type  1   force =     0.00030518   -0.00010161    0.00020201
     atom    6 type  1   force =    -0.00063530    0.00028006    0.00007150
     atom    7 type  1   force =    -0.00003434   -0.00011929   -0.00006575
     atom    8 type  1   force =    -0.00050213   -0.00037125   -0.00000242
     atom    9 type  1   force =     0.00029902    0.00011100    0.00019036
     atom   10 type  1   force =     0.00027940    0.00011980    0.00036832
     atom   11 type  1   force =     0.00056330    0.00043163    0.00011168
     atom   12 type  1   force =    -0.00026121   -0.00056607    0.00001747
     atom   13 type  1   force =    -0.00020585    0.00037764    0.00003684
     atom   14 type  1   force =    -0.00003585   -0.00019658    0.00026037
     atom   15 type  1   force =    -0.00022351    0.00014578    0.00050286
     atom   16 type  1   force =     0.00019533    0.00018317   -0.00053376
     atom   17 type  1   force =    -0.00023383   -0.00045623   -0.00043626
     atom   18 type  1   force =    -0.00005620    0.00005648    0.00007090
     atom   19 type  1   force =     0.00009430    0.00040902   -0.00007465
     atom   20 type  1   force =     0.00003392   -0.00016705   -0.00006965
     atom   21 type  1   force =     0.00012309    0.00013569   -0.00004632
     atom   22 type  1   force =    -0.00010105   -0.00057917   -0.00005043
     atom   23 type  1   force =     0.00019821   -0.00001690   -0.00027623
     atom   24 type  1   force =     0.00034287    0.00024450   -0.00013531
     atom   25 type  1   force =     0.00042339    0.00033755   -0.00012338
     atom   26 type  1   force =     0.00000747    0.00015423   -0.00000044
     atom   27 type  1   force =    -0.00003639   -0.00047215    0.00032411
     atom   28 type  1   force =    -0.00011849   -0.00007947   -0.00019741
     atom   29 type  1   force =     0.00011820    0.00027894   -0.00008123
     atom   30 type  1   force =    -0.00003184   -0.00012410   -0.00002972
     atom   31 type  1   force =    -0.00005564   -0.00017741   -0.00022563
     atom   32 type  1   force =     0.00013121    0.00001800   -0.00056270
     atom   33 type  1   force =    -0.00026126    0.00050059    0.00003265
     atom   34 type  1   force =     0.00002832   -0.00009721   -0.00013330
     atom   35 type  1   force =    -0.00058893    0.00013600   -0.00011336
     atom   36 type  1   force =     0.00024994   -0.00014226    0.00003923
     atom   37 type  1   force =    -0.00009338   -0.00007769    0.00031048
     atom   38 type  1   force =     0.00037335   -0.00024974   -0.00016470
     atom   39 type  1   force =    -0.00061791    0.00000991    0.00008304
     atom   40 type  1   force =     0.00038773    0.00030087    0.00036329
     atom   41 type  1   force =    -0.00000065   -0.00073404   -0.00017927
     atom   42 type  1   force =    -0.00012085   -0.00044352   -0.00002170
     atom   43 type  1   force =    -0.00002491   -0.00024129   -0.00059485
     atom   44 type  1   force =    -0.00052550    0.00031440   -0.00012600
     atom   45 type  1   force =    -0.00045084   -0.00021773   -0.00001372
     atom   46 type  1   force =     0.00014688   -0.00014482    0.00012148
     atom   47 type  1   force =    -0.00036186   -0.00009496   -0.00049074
     atom   48 type  1   force =     0.00003370    0.00019417    0.00007268
     atom   49 type  1   force =    -0.00004711    0.00041913    0.00005305
     atom   50 type  1   force =    -0.00011088    0.00021212   -0.00003902
     atom   51 type  1   force =    -0.00053759   -0.00021693    0.00047747
     atom   52 type  1   force =    -0.00008186   -0.00016283    0.00036695
     atom   53 type  1   force =    -0.00007985    0.00015098   -0.00050021
     atom   54 type  1   force =     0.00003002    0.00009006   -0.00002304
     atom   55 type  1   force =    -0.00050807    0.00013272   -0.00019108
     atom   56 type  1   force =    -0.00005941   -0.00002728   -0.00011990
     atom   57 type  2   force =     0.00036320    0.00012246    0.00027313
     atom   58 type  2   force =    -0.00007988    0.00011855   -0.00001827
     atom   59 type  2   force =     0.00045255    0.00023906   -0.00024365
     atom   60 type  2   force =    -0.00046779    0.00028661   -0.00027366
[...]
     atom  110 type  5   force =     0.00035417    0.00072250   -0.00009476
     atom  111 type  5   force =    -0.00014138   -0.00001665    0.00012848
     atom  112 type  5   force =     0.00000275    0.00011813    0.00012987
     atom  113 type  5   force =     0.00003427    0.00056649    0.00014928
     atom  114 type  5   force =    -0.00025701    0.00002120   -0.00005750
     atom  115 type  5   force =     0.00012829   -0.00005654   -0.00028035
     atom  116 type  5   force =    -0.00002589   -0.00028463    0.00018210
     atom  117 type  5   force =    -0.00036059   -0.00009613    0.00042553
     atom  118 type  5   force =     0.00023874    0.00010767   -0.00010991
     atom  119 type  5   force =     0.00017014    0.00049882   -0.00028692
     atom  120 type  5   force =    -0.00035977    0.00008431    0.00013499
     atom  121 type  5   force =     0.00032327   -0.00006419   -0.00034972
     atom  122 type  5   force =     0.00031919    0.00012289   -0.00019041
     atom  123 type  5   force =     0.00053168    0.00066693   -0.00077015
     atom  124 type  5   force =    -0.00013761    0.00001446    0.00023706

     Total force =     0.005388     Total SCF correction =     0.000171

     bfgs converged in  98 scf cycles and  91 bfgs steps
     (criteria: energy <  1.0E-04 Ry, force <  1.0E-03 Ry/Bohr)

     End of BFGS Geometry Optimization

     Final energy   =   -2118.3546986666 Ry
Begin final coordinates

ATOMIC_POSITIONS (crystal)
C             0.2822195315        0.9662381984        0.5315109554
C             0.0339947837        0.0475088150        0.0324285154
C             0.3882377386        0.0067098875        0.5429350037
C             0.1378856863        1.0025636610        0.0493532202
C             0.4553612465        0.9568561324        0.6344160004
C             0.2039786974        0.0501610286        0.1437313353
C             0.2090888140        0.5523760962        0.5283745941
C             0.4658488499        0.4710736398        0.0387255179
C             0.2431248136        0.6336383055        0.6171495111
C             0.4997157543        0.3884721263        0.1253564582
C             0.2463996113        0.8922052292        0.6263655702
C            -0.0015189893        0.1243825453        0.1244304019
C             0.4169109811        0.8768221764        0.7171417950
C             0.1659249582        0.1318784437        0.2243947265
C             0.0849401285        0.6239464878        0.7300771898
C             0.3327821835        0.3801175088        0.2182818259
C             0.0456547853        0.5446027297        0.6453865200
C             0.2955169508        0.4650529668        0.1401176297
C             0.1084382691        0.5029544637        0.5472169183
C             0.3619807433        0.5151422179        0.0515199066
C             0.4295546921        0.0956376727        0.4645250180
C             0.1774375814        0.9106631987        0.9741482185
C             0.0698914960        0.4089211980        0.4742050856
C             0.3221440204        0.6076747640        0.9758096309
C             0.7865526250        0.9627280478        0.5233839957
C             0.5358716018        0.0391373008        0.0193657494
C             0.8888182467        0.0101309871        0.5439874621
C             0.6404582502        0.9954292636        0.0333737387
C             0.9549332582        0.9633589634        0.6390192700
C             0.7072217949        0.0434993709        0.1269488809
C             0.7213506448        0.5125149951        0.5486172799
C             0.9496307280        0.4563157866        0.0277133236
C             0.7570627963        0.5974860301        0.6265372148
C             0.9875371383        0.3792704923        0.1194953055
C             0.7532601177        0.8809302513        0.6099750284
C             0.5013473354        0.1159753173        0.1117629527
C             0.9188187669        0.8787549322        0.7161133195
C             0.6701667226        0.1253057427        0.2081237276
C             0.5885807584        0.6212830421        0.7144506372
C             0.8417606762        0.4079126612        0.2504414250
C             0.5482522427        0.5331101235        0.6407926225
C             0.8058054985        0.4924786807        0.1713655467
C             0.6153571347        0.4788820704        0.5530268913
C             0.8607912459        0.5208583523        0.0597829471
C             0.9276795866        0.1037418298        0.4720915045
C             0.6811546557        0.9047658298        0.9564985478
C             0.5730501150        0.3894965210        0.4742133958
C             0.8220828653        0.6089882324        0.9764882676
C             0.1281605292        0.9524399891        0.3953650696
C             0.8825475839        0.0614029552        0.8907802096
C             0.3634922833        0.5594423473        0.4000306872
C             0.6191983344        0.4590550465        0.9118115481
C             0.6332653887        0.9500385566        0.3867011294
C             0.3800638348        0.0542017447        0.8876274126
C             0.3829796487        0.4618489147        0.7315582424
C             0.0527297779        0.3910437772        0.8578894485
H             0.0345121274        0.9948704799        0.6586240953
H             0.2853297255        1.0222560096        0.1602403274
H             0.3214564636        0.6700074648        0.6064276833
H             0.0616310604        0.3364843470        0.1016055341
[...]
O             0.8771511237        0.6524462910        0.8866483615
O             0.8728682577        0.1561698032        0.3865021067
O             0.6268380560        0.8526600820        0.8700740786
O             0.9762365256        0.3696565798        0.4927362079
O             0.7279934406        0.6486510372        0.9879864805
O             0.5254568947        0.1307298246        0.4815058014
O             0.7773539501        0.8703832417        0.9733315565
O             0.0492536166        0.9221195251        0.3452099664
O             0.8042846823        0.0908317306        0.8382686018
O             0.4457638204        0.5835291378        0.3574211311
O             0.6978251675        0.4264869520        0.8673287398
O             0.5537505163        0.9200942452        0.3378536537
O             0.2997940472        0.0848688056        0.8415945918
O             0.3151076065        0.4226641656        0.7917247604
O             0.1022331431        0.3322579624        0.7956192660
End final coordinates

     Writing output data file /nfs/hpc/share/gantzlen/NiPyC2_relax_sc211_meta_functionalized_N-C-O_pbesol_relax.save/

     General routines

     Parallel routines

   This run was terminated on:  17:40: 8  26Jun2020

   JOB DONE.
QE finished Fri Jun 26 17:40:08 PDT 2020