     Program PWSCF v.6.5 starts on  1Aug2020 at 12: 9:50

     K-points division:     npool     =       2
     R & G space division:  proc/nbgrp/npool/nimage =       8
     Reading input from ./QE_input_scripts/pw.NiPyC2_relax_sc211_ortho_functionalized_C-C_pbesol_relax.in
Warning: card &CELL ignored
Warning: card    CELL_DYNAMICS = 'BFGS' ignored
Warning: card    CELL_DOFREE = 'XYZ' ignored
Warning: card / ignored

     Current dimensions of program PWSCF are:
     Max number of different atomic species (ntypx) = 10
     Max number of k-points (npk) =  40000
     Max angular momentum in pseudopotentials (lmaxx) =  3

     Parameters for Dispersion (Grimme-D2) Correction:
       atom      VdW radius       C_6

        C          2.744         60.710
        H          1.892          4.857
        N          2.640         42.670
        Ni         2.952        374.666
        O          2.536         24.284

     gamma-point specific algorithms are used

     Subspace diagonalization in iterative solution of the eigenvalue problem:
     a serial algorithm will be used

     bravais-lattice index     =            0
     lattice parameter (alat)  =      23.6322  a.u.
     unit-cell volume          =   10858.6228 (a.u.)^3
     number of atoms/cell      =          124
     number of atomic types    =            5
     number of electrons       =       464.00 (up: 236.00, down: 228.00)
     number of Kohn-Sham states=          283
     kinetic-energy cutoff     =     100.0000  Ry
     charge density cutoff     =     400.0000  Ry
     convergence threshold     =      1.0E-06
     mixing beta               =       0.7000
     number of iterations used =            8  local-TF  mixing
     Exchange-correlation= PBESOL
                           (   1   4  10   8   0   0   0)
     nstep                     =          200

     celldm(1)=  23.632159  celldm(2)=   0.000000  celldm(3)=   0.000000
     celldm(4)=   0.000000  celldm(5)=   0.000000  celldm(6)=   0.000000

     crystal axes: (cart. coord. in units of alat)
               a(1) = (   1.000000   0.000000   0.000000 )
               a(2) = (   0.000000   1.001423   0.000000 )
               a(3) = (  -0.018199   0.000000   0.821574 )

     reciprocal axes: (cart. coord. in units 2 pi/alat)
               b(1) = (  1.000000  0.000000  0.022152 )
               b(2) = (  0.000000  0.998579  0.000000 )
               b(3) = (  0.000000  0.000000  1.217175 )

     PseudoPot. # 1 for C  read from file:
     ./pseudo/C.pbesol-nc.UPF
     MD5 check sum: ce26087537ded160c8d400e183a8bf42
     Pseudo is Norm-conserving, Zval =  4.0
     Generated using "atomic" code by A. Dal Corso v.6.5
     Using radial grid of 1073 points,  1 beta functions with:
                l(1) =   1

     PseudoPot. # 2 for H  read from file:
     ./pseudo/H.pbesol-n-nc.UPF
     MD5 check sum: 7995ef24074557c85b430109caaacc09
     Pseudo is Norm-conserving, Zval =  1.0
     Generated using "atomic" code by A. Dal Corso v.6.5
     Using radial grid of  929 points,  0 beta functions with:

     PseudoPot. # 3 for N  read from file:
     ./pseudo/N.pbesol-nc.UPF
     MD5 check sum: e18cc5e4b8a5600c1a19b30c2cab1ca0
     Pseudo is Norm-conserving, Zval =  5.0
     Generated using "atomic" code by A. Dal Corso v.6.5
     Using radial grid of 1085 points,  1 beta functions with:
                l(1) =   1

     PseudoPot. # 4 for Ni read from file:
     ./pseudo/Ni.pbesol-n-nc.UPF
     MD5 check sum: 623411631e0c2eb7c0b2b9815547d2d9
     Pseudo is Norm-conserving + core correction, Zval = 10.0
     Generated using "atomic" code by A. Dal Corso v.6.5
     Using radial grid of 1195 points,  2 beta functions with:
                l(1) =   1
                l(2) =   2

     PseudoPot. # 5 for O  read from file:
     ./pseudo/O.pbesol-nc.UPF
     MD5 check sum: 73d10e7e91dbfcbe8a7e362101007f84
     Pseudo is Norm-conserving, Zval =  6.0
     Generated using "atomic" code by A. Dal Corso v.6.5
     Using radial grid of 1095 points,  1 beta functions with:
                l(1) =   1

     atomic species   valence    mass     pseudopotential
        C              4.00    12.01070     C ( 1.00)
        H              1.00     1.00794     H ( 1.00)
        N              5.00    14.00670     N ( 1.00)
        Ni            10.00    58.69340     Ni( 1.00)
        O              6.00    15.99940     O ( 1.00)

     Starting magnetic structure
     atomic species   magnetization
        C            0.000
        H            0.000
        N            0.000
        Ni           0.250
        O            0.000

     No symmetry found

   Cartesian axes

     site n.     atom                  positions (alat units)
         1           C   tau(   1) = (   0.2787122   0.9714307   0.4288486  )
         2           C   tau(   2) = (   0.0379730   0.0311503   0.0183277  )
         3           C   tau(   3) = (   0.3806882   0.0117868   0.4489838  )
         4           C   tau(   4) = (   0.1394042   0.9891499   0.0379124  )
         5           C   tau(   5) = (   0.4400787   0.9715829   0.5343281  )
         6           C   tau(   6) = (   0.1997920   0.0283934   0.1231482  )
         7           C   tau(   7) = (   0.1986011   0.5304580   0.4324635  )
         8           C   tau(   8) = (   0.4580372   0.4720800   0.0229252  )
         9           C   tau(   9) = (   0.2341003   0.6142040   0.4982314  )
        10           C   tau(  10) = (   0.4948422   0.3892302   0.0892369  )
        11           C   tau(  11) = (   0.2384981   0.8904717   0.4955761  )
        12           C   tau(  12) = (  -0.0008282   0.1123917   0.0856467  )
        13           C   tau(  13) = (   0.3947360   0.8906489   0.5977380  )
        14           C   tau(  14) = (   0.1557890   0.1097029   0.1871645  )
        15           C   tau(  15) = (   0.0756247   0.6098498   0.5975737  )
        16           C   tau(  16) = (   0.3367152   0.3921904   0.1884642  )
        17           C   tau(  17) = (   0.0350715   0.5258264   0.5351012  )
        18           C   tau(  18) = (   0.2948780   0.4753867   0.1254988  )
        19           C   tau(  19) = (   0.0981522   0.4849593   0.4519611  )
        20           C   tau(  20) = (   0.3569104   0.5163900   0.0416029  )
        21           C   tau(  21) = (   0.4248178   0.0994604   0.3833638  )
        22           C   tau(  22) = (   0.1639424   0.9010006   0.7933713  )
        23           C   tau(  23) = (   0.0588120   0.3950355   0.3866953  )
        24           C   tau(  24) = (   0.2984059   0.6050320   0.7961934  )
        25           C   tau(  25) = (   0.7787122   0.9714307   0.4288486  )
        26           C   tau(  26) = (   0.5379730   0.0311503   0.0183277  )
        27           C   tau(  27) = (   0.8806882   0.0117868   0.4489838  )
        28           C   tau(  28) = (   0.6394042   0.9891499   0.0379124  )
        29           C   tau(  29) = (   0.9400787   0.9715829   0.5343281  )
        30           C   tau(  30) = (   0.6997920   0.0283934   0.1231482  )
        31           C   tau(  31) = (   0.6986021   0.5304580   0.4324635  )
        32           C   tau(  32) = (   0.9580382   0.4720800   0.0229252  )
        33           C   tau(  33) = (   0.7341003   0.6142040   0.4982314  )
        34           C   tau(  34) = (   0.9948422   0.3892302   0.0892369  )
        35           C   tau(  35) = (   0.7384981   0.8904717   0.4955761  )
        36           C   tau(  36) = (   0.4991718   0.1123917   0.0856467  )
        37           C   tau(  37) = (   0.8947360   0.8906489   0.5977380  )
        38           C   tau(  38) = (   0.6557880   0.1097029   0.1871645  )
        39           C   tau(  39) = (   0.5756247   0.6098498   0.5975737  )
        40           C   tau(  40) = (   0.8367152   0.3921904   0.1884642  )
        41           C   tau(  41) = (   0.5350715   0.5258264   0.5351012  )
        42           C   tau(  42) = (   0.7948780   0.4753867   0.1254988  )
        43           C   tau(  43) = (   0.5981522   0.4849593   0.4519611  )
        44           C   tau(  44) = (   0.8569104   0.5163900   0.0416029  )
        45           C   tau(  45) = (   0.9248178   0.0994604   0.3833638  )
        46           C   tau(  46) = (   0.6639424   0.9010006   0.7933713  )
        47           C   tau(  47) = (   0.5588110   0.3950355   0.3866953  )
        48           C   tau(  48) = (   0.7984059   0.6050320   0.7961934  )
        49           C   tau(  49) = (   0.1372737   0.8474956   0.4766790  )
        50           C   tau(  50) = (   0.0517450   0.8103918   0.4616335  )
        51           C   tau(  51) = (   0.8988416   0.1574788   0.0667849  )
        52           C   tau(  52) = (   0.8140979   0.1963601   0.0517855  )
        53           C   tau(  53) = (   0.3334486   0.6615313   0.4801132  )
        54           C   tau(  54) = (   0.4173907   0.7023162   0.4656658  )
        55           C   tau(  55) = (   0.5951253   0.3436494   0.0714934  )
        56           C   tau(  56) = (   0.6798275   0.3043396   0.0573993  )
        57           C   tau(  57) = (   0.6375248   0.8470700   0.4763142  )
        58           C   tau(  58) = (   0.5522069   0.8096077   0.4609607  )
        59           C   tau(  59) = (   0.3988416   0.1574788   0.0667849  )
        60           C   tau(  60) = (   0.3140979   0.1963601   0.0517855  )
[...]
       110           O   tau( 110) = (   0.3551690   0.6519036   0.7240468  )
       111           O   tau( 111) = (   0.3707656   0.1477170   0.3098797  )
       112           O   tau( 112) = (   0.1091506   0.8535652   0.7199135  )
       113           O   tau( 113) = (   0.4642788   0.3566669   0.3968154  )
       114           O   tau( 114) = (   0.2033039   0.6423280   0.8050417  )
       115           O   tau( 115) = (   0.0200847   0.1353504   0.3952413  )
       116           O   tau( 116) = (   0.2588616   0.8639860   0.8046490  )
       117           O   tau( 117) = (   0.6158110   0.3481839   0.3145586  )
       118           O   tau( 118) = (   0.8551690   0.6519036   0.7240468  )
       119           O   tau( 119) = (   0.8707656   0.1477170   0.3098797  )
       120           O   tau( 120) = (   0.6091506   0.8535652   0.7199135  )
       121           O   tau( 121) = (   0.9642788   0.3566669   0.3968154  )
       122           O   tau( 122) = (   0.7033039   0.6423280   0.8050417  )
       123           O   tau( 123) = (   0.5200847   0.1353504   0.3952413  )
       124           O   tau( 124) = (   0.7588616   0.8639860   0.8046490  )

     number of k points=     1  Marzari-Vanderbilt smearing, width (Ry)=  0.2000
                       cart. coord. in units 2pi/alat
        k(    1) = (   0.0000000   0.0000000   0.0000000), wk =   1.0000000

     Check: negative core charge=   -0.000145

     Initial potential from superposition of free atoms

     starting charge  463.99604, renormalised to  464.00000
     Starting wfcs are  420 randomized atomic wfcs

     Self-consistent Calculation

     iteration #  1     ecut=   100.00 Ry     beta= 0.70
     Davidson diagonalization with overlap
     ethr =  1.00E-02,  avg # of iterations =  3.0

[...]
     atom:   53    charge:    0.6381    magn:    0.0069    constr:    0.0000
     atom:   54    charge:    0.3019    magn:    0.0061    constr:    0.0000
     atom:   55    charge:    0.6697    magn:    0.0069    constr:    0.0000
     atom:   56    charge:    0.2899    magn:    0.0057    constr:    0.0000
     atom:   57    charge:    0.6438    magn:    0.0073    constr:    0.0000
     atom:   58    charge:    0.3260    magn:    0.0068    constr:    0.0000
     atom:   59    charge:    0.6363    magn:    0.0069    constr:    0.0000
     atom:   60    charge:    0.3189    magn:    0.0062    constr:    0.0000
[...]
     atom:  110    charge:    3.1338    magn:    0.0189    constr:    0.0000
     atom:  111    charge:    3.1272    magn:    0.0518    constr:    0.0000
     atom:  112    charge:    2.9922    magn:    0.0497    constr:    0.0000
     atom:  113    charge:    3.0632    magn:    0.0534    constr:    0.0000
     atom:  114    charge:    3.2679    magn:    0.0265    constr:    0.0000
     atom:  115    charge:    3.2077    magn:    0.0532    constr:    0.0000
     atom:  116    charge:    3.1669    magn:    0.0487    constr:    0.0000
     atom:  117    charge:    3.1189    magn:    0.0520    constr:    0.0000
     atom:  118    charge:    3.0841    magn:    0.0511    constr:    0.0000
     atom:  119    charge:    3.1898    magn:    0.0530    constr:    0.0000
     atom:  120    charge:    3.2160    magn:    0.0541    constr:    0.0000
     atom:  121    charge:    3.2256    magn:    0.0531    constr:    0.0000
     atom:  122    charge:    3.1073    magn:    0.0510    constr:    0.0000
     atom:  123    charge:    3.2465    magn:    0.0549    constr:    0.0000
     atom:  124    charge:    3.2571    magn:    0.0528    constr:    0.0000

     End of self-consistent calculation

 ------ SPIN UP ------------

[...]

 ------ SPIN DOWN ----------

          k = 0.0000 0.0000 0.0000 ( 91663 PWs)   bands (ev):

   -22.4347 -21.2990 -21.2911 -21.2721 -21.2483 -21.1303 -21.1270 -21.1248
   -20.2080 -18.5185 -18.3004 -18.2797 -18.2772 -18.2623 -18.2532 -18.2369
   -18.2295 -18.2257 -18.2112 -18.1913 -18.1758 -18.1494 -18.1116 -18.0961
   -15.3782 -14.6890 -14.5478 -14.5263 -14.4851 -14.4686 -14.4585 -14.4385
   -14.4268 -14.4190 -14.2358 -14.1812 -14.1052 -14.0845 -14.0162 -13.9888
   -13.2769 -13.0461 -12.6117 -12.5795 -12.4156 -12.3117 -12.2743 -12.1489
   -11.4540 -10.9399 -10.8276 -10.8042 -10.7803 -10.7283 -10.6860 -10.6476
   -10.5203 -10.4397 -10.2008 -10.1819 -10.1702 -10.1465 -10.1089 -10.0615
    -9.6275  -9.2617  -9.0277  -8.9642  -8.9002  -8.8556  -8.8377  -8.7681
    -8.5727  -7.7594  -7.5523  -7.4909  -7.4172  -7.2445  -7.1729  -7.1383
    -7.0751  -6.9849  -6.9336  -6.8074  -6.7491  -6.7396  -6.7160  -6.6836
    -6.6525  -6.6294  -6.6213  -6.5811  -6.5302  -6.4778  -6.4674  -6.4475
    -6.4014  -6.3184  -6.1023  -6.0118  -5.9684  -5.9648  -5.9300  -5.9116
    -5.8755  -5.8065  -5.6651  -5.6211  -5.5825  -5.5409  -5.5026  -5.4731
    -5.4470  -5.4108  -5.3898  -5.3721  -5.3558  -5.2783  -5.2318  -5.2002
    -5.1663  -5.1236  -5.1035  -5.0694  -5.0372  -5.0130  -4.9894  -4.8573
    -4.8370  -4.7424  -4.7219  -4.7041  -4.6297  -4.6084  -4.5969  -4.5664
    -4.4726  -4.4656  -4.4295  -4.4156  -4.3673  -4.3513  -4.2852  -4.2434
    -4.0747  -3.9382  -3.5314  -3.4749  -3.3358  -3.2704  -3.2361  -3.1961
    -3.1743  -3.1310  -3.0816  -3.0447  -3.0262  -2.9945  -2.9568  -2.8066
    -2.7086  -2.6765  -2.5953  -2.5778  -2.5328  -2.5002  -2.4222  -2.3943
    -2.3019  -2.2632  -2.2107  -2.1188  -2.0615  -2.0266  -2.0032  -1.9283
    -1.8812  -1.8747  -1.7985  -1.7598  -1.7450  -1.7259  -1.6984  -1.6207
    -1.5695  -1.5230  -1.4685  -1.4482  -1.4066  -1.3769  -1.3425  -1.3347
    -1.2930  -1.2643  -1.2218  -1.1718  -1.1431  -1.1329  -1.1137  -1.0984
    -1.0595  -1.0400  -0.9853  -0.9801  -0.9289  -0.8572  -0.8263  -0.7635
    -0.7426  -0.7167  -0.5074  -0.4315  -0.3098  -0.2735  -0.2451  -0.1829
    -0.1591  -0.1479  -0.1238  -0.0845  -0.0750  -0.0102   0.0076   0.1175
     0.3786   0.4251   1.1353   1.2309   1.4821   1.6088   1.6546   1.6605
     1.7340   1.8478   1.8812   1.9126   1.9495   2.7441   2.7943   2.8630
     2.9688   3.0692   3.1446   3.1750   3.3290   3.5574   3.6774   3.7377
     3.9129   3.9402   3.9965   4.2015   4.5742   4.6980   4.8319   5.0030
     5.0780   5.0901   5.1469   5.2173   5.2960   5.3574   5.3918   5.4120
     5.5133   5.5464   5.5843   5.6614   5.7726   5.8786   5.9917   6.1195
     6.2039   6.2978   6.3569   6.5129   6.6920   6.7980   6.8444   6.8832
     6.9660   7.0450   7.1904

     the spin up/dw Fermi energies are     1.4110    1.0839 ev

!    total energy              =   -1802.89358339 Ry
     Harris-Foulkes estimate   =   -1802.89358340 Ry
     estimated scf accuracy    <          2.8E-09 Ry

     The total energy is the sum of the following terms:

     one-electron contribution =   -2349.60700312 Ry
     hartree contribution      =    1349.99768317 Ry
     xc contribution           =    -547.41156627 Ry
     ewald contribution        =    -258.01587711 Ry
     Dispersion Correction     =      -0.61548850 Ry
     smearing contrib. (-TS)   =       2.75866843 Ry

     total magnetization       =     8.00 Bohr mag/cell
     absolute magnetization    =     8.20 Bohr mag/cell

     convergence has been achieved in  11 iterations

     Forces acting on atoms (cartesian axes, Ry/au):

     atom    1 type  1   force =     0.00021248   -0.00017648   -0.00006586
     atom    2 type  1   force =     0.00016310    0.00030896    0.00015005
     atom    3 type  1   force =     0.00011134   -0.00010152   -0.00032913
     atom    4 type  1   force =     0.00011014    0.00037659   -0.00020696
     atom    5 type  1   force =    -0.00000514    0.00001742   -0.00070014
     atom    6 type  1   force =     0.00008771    0.00020816    0.00008521
     atom    7 type  1   force =     0.00014729    0.00026109   -0.00014841
     atom    8 type  1   force =     0.00013050    0.00011132    0.00093245
     atom    9 type  1   force =     0.00045665    0.00016491    0.00017759
     atom   10 type  1   force =    -0.00030050   -0.00081185   -0.00024308
     atom   11 type  1   force =     0.00032673    0.00007473    0.00007025
     atom   12 type  1   force =    -0.00034698   -0.00022560    0.00053633
     atom   13 type  1   force =     0.00023991    0.00043434    0.00025362
     atom   14 type  1   force =    -0.00007697   -0.00016246    0.00022597
     atom   15 type  1   force =     0.00002431    0.00032255    0.00023913
     atom   16 type  1   force =     0.00023596    0.00053129    0.00001377
     atom   17 type  1   force =    -0.00001764    0.00024058    0.00003247
     atom   18 type  1   force =    -0.00019088   -0.00036067    0.00004722
     atom   19 type  1   force =    -0.00023827    0.00010385    0.00018546
     atom   20 type  1   force =     0.00035977   -0.00027408   -0.00034459
     atom   21 type  1   force =    -0.00004587   -0.00013594    0.00031431
     atom   22 type  1   force =    -0.00064914    0.00046716    0.00034780
     atom   23 type  1   force =    -0.00014939    0.00006985    0.00005684
     atom   24 type  1   force =    -0.00058115   -0.00031265    0.00009979
     atom   25 type  1   force =     0.00027478   -0.00000246    0.00012724
     atom   26 type  1   force =     0.00037627    0.00002202    0.00044891
     atom   27 type  1   force =    -0.00012437   -0.00008272   -0.00054530
     atom   28 type  1   force =    -0.00033790   -0.00006819   -0.00028262
     atom   29 type  1   force =     0.00029569    0.00008545   -0.00035290
     atom   30 type  1   force =    -0.00004984    0.00012618    0.00019866
     atom   31 type  1   force =     0.00051425    0.00014418    0.00022725
     atom   32 type  1   force =    -0.00013359    0.00011156   -0.00097438
     atom   33 type  1   force =     0.00001105   -0.00054475   -0.00019190
     atom   34 type  1   force =    -0.00018237    0.00011163    0.00030690
     atom   35 type  1   force =    -0.00000101    0.00017842    0.00045980
     atom   36 type  1   force =    -0.00017601   -0.00034422    0.00009282
     atom   37 type  1   force =     0.00000109   -0.00016184    0.00006729
     atom   38 type  1   force =     0.00015121   -0.00020869    0.00008228
     atom   39 type  1   force =    -0.00006129    0.00003212    0.00040491
     atom   40 type  1   force =     0.00018765   -0.00027377    0.00009457
     atom   41 type  1   force =     0.00045274    0.00006550    0.00050656
     atom   42 type  1   force =    -0.00080492   -0.00003401   -0.00012794
     atom   43 type  1   force =     0.00016599    0.00027073   -0.00014065
     atom   44 type  1   force =     0.00035484   -0.00029685   -0.00058655
     atom   45 type  1   force =     0.00028300   -0.00010340   -0.00013661
     atom   46 type  1   force =    -0.00028098    0.00010415   -0.00009382
     atom   47 type  1   force =    -0.00000082    0.00046192   -0.00023424
     atom   48 type  1   force =     0.00015928   -0.00056127    0.00002683
     atom   49 type  1   force =     0.00013060   -0.00008749   -0.00000633
     atom   50 type  1   force =    -0.00038271    0.00016141    0.00049100
     atom   51 type  1   force =     0.00003434   -0.00007562   -0.00012784
     atom   52 type  1   force =     0.00000117    0.00002588    0.00029139
     atom   53 type  1   force =    -0.00006250   -0.00021949   -0.00014778
     atom   54 type  1   force =     0.00039171   -0.00006240    0.00042335
     atom   55 type  1   force =    -0.00015452    0.00019561    0.00001208
     atom   56 type  1   force =    -0.00006769   -0.00009482   -0.00003857
     atom   57 type  1   force =    -0.00052461   -0.00005474   -0.00014914
     atom   58 type  1   force =    -0.00004534   -0.00008258    0.00025072
     atom   59 type  1   force =     0.00046855    0.00010738   -0.00001204
     atom   60 type  1   force =    -0.00054090    0.00005675   -0.00007010
[...]
     atom  110 type  5   force =     0.00012221   -0.00055678    0.00049299
     atom  111 type  5   force =    -0.00025367    0.00013242    0.00023850
     atom  112 type  5   force =    -0.00013476   -0.00004515   -0.00020990
     atom  113 type  5   force =     0.00040729   -0.00066651   -0.00067415
     atom  114 type  5   force =    -0.00024397    0.00041868   -0.00078086
     atom  115 type  5   force =    -0.00002261    0.00002578    0.00031750
     atom  116 type  5   force =    -0.00026839    0.00034730    0.00024802
     atom  117 type  5   force =    -0.00037420   -0.00043094    0.00015822
     atom  118 type  5   force =     0.00025128    0.00016614   -0.00021939
     atom  119 type  5   force =    -0.00021690   -0.00047720   -0.00029867
     atom  120 type  5   force =    -0.00005843   -0.00041599    0.00006623
     atom  121 type  5   force =     0.00029972   -0.00009256   -0.00028935
     atom  122 type  5   force =     0.00013805   -0.00019126   -0.00072666
     atom  123 type  5   force =     0.00026977    0.00017201    0.00005525
     atom  124 type  5   force =    -0.00052155   -0.00027508    0.00002479

     Total force =     0.006278     Total SCF correction =     0.000117

     bfgs converged in  91 scf cycles and  87 bfgs steps
     (criteria: energy <  1.0E-04 Ry, force <  1.0E-03 Ry/Bohr)

     End of BFGS Geometry Optimization

     Final energy   =   -1802.8935833949 Ry
Begin final coordinates

ATOMIC_POSITIONS (crystal)
C             0.2852217929        0.9806439926        0.5267263103
C             0.0390041979        0.0209845306        0.0334725199
C             0.3845953300        0.0241918800        0.5595408579
C             0.1391267730        0.9785860270        0.0640435236
C             0.4411314424        0.9835272402        0.6680405077
C             0.1984168127        0.0232751063        0.1678251619
C             0.2036713531        0.5199108919        0.5356689411
C             0.4398617276        0.4586843949        0.0232826840
C             0.2439656825        0.6055581883        0.6118836170
C             0.4878241660        0.3807642479        0.1050985423
C             0.2441207221        0.8963221378        0.6026524263
C            -0.0006512132        0.1072826438        0.1073262263
C             0.3951337528        0.9005670066        0.7402467356
C             0.1542232040        0.1090654883        0.2375255859
C             0.0849718129        0.6137860301        0.7263555980
C             0.3429024341        0.3824452632        0.2432850289
C             0.0395047575        0.5307945241        0.6519308919
C             0.2805245892        0.4574288353        0.1576148071
C             0.1007580960        0.4827234223        0.5559487451
C             0.3455976391        0.5083041798        0.0558107195
C             0.4313302037        0.1069745201        0.4766245904
C             0.1796501044        0.8923122503        0.9818057588
C             0.0598099676        0.3943752028        0.4754018397
C             0.3056805783        0.5985513562        0.9827057905
C             0.7923412471        0.9813033391        0.5263531036
C             0.5416089706        0.0220702110        0.0260089693
C             0.8933813363        0.0221917305        0.5549936370
C             0.6419209363        0.9797983378        0.0551140057
C             0.9524115243        0.9793945768        0.6598835929
C             0.7004510612        0.0200038358        0.1622196907
C             0.7235424835        0.5235692422        0.5279084376
C             0.9576411023        0.4905396218        0.0420952258
C             0.7586388020        0.6106710890        0.6042908065
C             0.9982497688        0.4056141945        0.1209684433
C             0.7512759529        0.8981749093        0.6039971086
C             0.5003582851        0.1042226392        0.1050124948
C             0.9071756261        0.8964485798        0.7331345221
C             0.6553438485        0.1025871409        0.2360593672
C             0.6073244748        0.6008186794        0.7319227620
C             0.8382857415        0.3951730341        0.2326908665
C             0.5671826951        0.5116803525        0.6598927672
C             0.7949676966        0.4821221523        0.1613396476
C             0.6258614508        0.4744476713        0.5551790284
C             0.8553654615        0.5290046253        0.0631266013
C             0.9354037608        0.1079905433        0.4733642787
C             0.6856244041        0.8976948335        0.9697778066
C             0.5809186091        0.3869369109        0.4746095882
C             0.8134832728        0.6158119018        0.9800239307
C             0.1461310005        0.8521486407        0.5638909051
C             0.0590365012        0.8223716167        0.5208051039
C             0.8980354270        0.1431169148        0.0689798249
C             0.8086393718        0.1512140381        0.0180912795
C             0.3461361987        0.6401682304        0.5802655976
C             0.4342011992        0.6502737953        0.5315556317
C             0.5898937072        0.3499117401        0.0695268335
C             0.6779863185        0.3481409756        0.0190561719
C             0.6484052757        0.8640650096        0.5698366016
C             0.5579201328        0.8550094275        0.5224949727
C             0.3988374036        0.1405263365        0.0677017790
C             0.3100655852        0.1521585226        0.0164819147
[...]
O             0.3744092976        0.6438669212        0.8909036430
O             0.3767982189        0.1552716784        0.3864073827
O             0.1191228588        0.8486958527        0.8928527877
O             0.4847070045        0.3538655016        0.4873702550
O             0.2156866552        0.6390521765        0.9808128679
O             0.0312016976        0.1431070894        0.4840928603
O             0.2753913432        0.8562386499        0.9877580003
O             0.6329066531        0.3393744572        0.3847408296
O             0.8707829083        0.6596413652        0.8920333833
O             0.8776505301        0.1533643308        0.3834191668
O             0.6289780586        0.8554464648        0.8765001839
O             0.9648934220        0.3577049176        0.4838048416
O             0.7180610091        0.6524203667        0.9881430962
O             0.5296057489        0.1353040107        0.4861636975
O             0.7816528691        0.8633557756        0.9806039989
End final coordinates

     Writing output data file /nfs/hpc/share/gantzlen/NiPyC2_relax_sc211_ortho_functionalized_C-C_pbesol_relax.save/

     General routines

     Parallel routines

   This run was terminated on:  19: 7: 7   3Aug2020

   JOB DONE.
QE finished Mon Aug 3 19:07:07 PDT 2020