     Program PWSCF v.6.5 starts on 21Jun2020 at 23: 0:23

     K-points division:     npool     =       2
     R & G space division:  proc/nbgrp/npool/nimage =      16
     Reading input from QE_input_scripts/pw.NiPyC2_relax_sc211_meta_functionalized_F_pbesol_relax.in
Warning: card &CELL ignored
Warning: card    CELL_DYNAMICS = 'BFGS' ignored
Warning: card    CELL_DOFREE = 'XYZ' ignored
Warning: card / ignored

     Current dimensions of program PWSCF are:
     Max number of different atomic species (ntypx) = 10
     Max number of k-points (npk) =  40000
     Max angular momentum in pseudopotentials (lmaxx) =  3

     Parameters for Dispersion (Grimme-D2) Correction:
       atom      VdW radius       C_6

        C          2.744         60.710
        F          2.432         26.018
        H          1.892          4.857
        N          2.640         42.670
        Ni         2.952        374.666
        O          2.536         24.284

     gamma-point specific algorithms are used

     Subspace diagonalization in iterative solution of the eigenvalue problem:
     a serial algorithm will be used

     bravais-lattice index     =            0
     lattice parameter (alat)  =      23.6322  a.u.
     unit-cell volume          =   10858.6228 (a.u.)^3
     number of atoms/cell      =          108
     number of atomic types    =            6
     number of electrons       =       448.00 (up: 228.00, down: 220.00)
     number of Kohn-Sham states=          274
     kinetic-energy cutoff     =     100.0000  Ry
     charge density cutoff     =     400.0000  Ry
     convergence threshold     =      1.0E-06
     mixing beta               =       0.7000
     number of iterations used =            8  local-TF  mixing
     Exchange-correlation= PBESOL
                           (   1   4  10   8   0   0   0)
     nstep                     =          200

     celldm(1)=  23.632159  celldm(2)=   0.000000  celldm(3)=   0.000000
     celldm(4)=   0.000000  celldm(5)=   0.000000  celldm(6)=   0.000000

     crystal axes: (cart. coord. in units of alat)
               a(1) = (   1.000000   0.000000   0.000000 )
               a(2) = (   0.000000   1.001423   0.000000 )
               a(3) = (  -0.018199   0.000000   0.821574 )

     reciprocal axes: (cart. coord. in units 2 pi/alat)
               b(1) = (  1.000000  0.000000  0.022152 )
               b(2) = (  0.000000  0.998579  0.000000 )
               b(3) = (  0.000000  0.000000  1.217175 )

     PseudoPot. # 1 for C  read from file:
     ./pseudo/C.pbesol-nc.UPF
     MD5 check sum: ce26087537ded160c8d400e183a8bf42
     Pseudo is Norm-conserving, Zval =  4.0
     Generated using "atomic" code by A. Dal Corso v.6.5
     Using radial grid of 1073 points,  1 beta functions with:
                l(1) =   1

     PseudoPot. # 2 for F  read from file:
     ./pseudo/F.pbesol-n-nc.UPF
     MD5 check sum: 7bfb8b5cfca7590fa41d3808836ab4b2
     Pseudo is Norm-conserving, Zval =  7.0
     Generated using "atomic" code by A. Dal Corso v.6.5
     Using radial grid of 1105 points,  1 beta functions with:
                l(1) =   1

     PseudoPot. # 3 for H  read from file:
     ./pseudo/H.pbesol-n-nc.UPF
     MD5 check sum: 7995ef24074557c85b430109caaacc09
     Pseudo is Norm-conserving, Zval =  1.0
     Generated using "atomic" code by A. Dal Corso v.6.5
     Using radial grid of  929 points,  0 beta functions with:

     PseudoPot. # 4 for N  read from file:
     ./pseudo/N.pbesol-nc.UPF
     MD5 check sum: e18cc5e4b8a5600c1a19b30c2cab1ca0
     Pseudo is Norm-conserving, Zval =  5.0
     Generated using "atomic" code by A. Dal Corso v.6.5
     Using radial grid of 1085 points,  1 beta functions with:
                l(1) =   1

     PseudoPot. # 5 for Ni read from file:
     ./pseudo/Ni.pbesol-n-nc.UPF
     MD5 check sum: 623411631e0c2eb7c0b2b9815547d2d9
     Pseudo is Norm-conserving + core correction, Zval = 10.0
     Generated using "atomic" code by A. Dal Corso v.6.5
     Using radial grid of 1195 points,  2 beta functions with:
                l(1) =   1
                l(2) =   2

     PseudoPot. # 6 for O  read from file:
     ./pseudo/O.pbesol-nc.UPF
     MD5 check sum: 73d10e7e91dbfcbe8a7e362101007f84
     Pseudo is Norm-conserving, Zval =  6.0
     Generated using "atomic" code by A. Dal Corso v.6.5
     Using radial grid of 1095 points,  1 beta functions with:
                l(1) =   1

     atomic species   valence    mass     pseudopotential
        C              4.00    12.01070     C ( 1.00)
        F              7.00    18.99840     F ( 1.00)
        H              1.00     1.00794     H ( 1.00)
        N              5.00    14.00670     N ( 1.00)
        Ni            10.00    58.69340     Ni( 1.00)
        O              6.00    15.99940     O ( 1.00)

     Starting magnetic structure
     atomic species   magnetization
        C            0.000
        F            0.000
        H            0.000
        N            0.000
        Ni           0.250
        O            0.000

     No symmetry found

   Cartesian axes

     site n.     atom                  positions (alat units)
         1           C   tau(   1) = (   0.2787122   0.9714307   0.4288486  )
         2           C   tau(   2) = (   0.0379730   0.0311503   0.0183277  )
         3           C   tau(   3) = (   0.3806882   0.0117868   0.4489838  )
         4           C   tau(   4) = (   0.1394042   0.9891499   0.0379124  )
         5           C   tau(   5) = (   0.4400787   0.9715829   0.5343281  )
         6           C   tau(   6) = (   0.1997920   0.0283934   0.1231482  )
         7           C   tau(   7) = (   0.1986011   0.5304580   0.4324635  )
         8           C   tau(   8) = (   0.4580372   0.4720800   0.0229252  )
         9           C   tau(   9) = (   0.2341003   0.6142040   0.4982314  )
        10           C   tau(  10) = (   0.4948422   0.3892302   0.0892369  )
        11           C   tau(  11) = (   0.2384981   0.8904717   0.4955761  )
        12           C   tau(  12) = (  -0.0008282   0.1123917   0.0856467  )
        13           C   tau(  13) = (   0.3947360   0.8906489   0.5977380  )
        14           C   tau(  14) = (   0.1557890   0.1097029   0.1871645  )
        15           C   tau(  15) = (   0.0756247   0.6098498   0.5975737  )
        16           C   tau(  16) = (   0.3367152   0.3921904   0.1884642  )
        17           C   tau(  17) = (   0.0350715   0.5258264   0.5351012  )
        18           C   tau(  18) = (   0.2948780   0.4753867   0.1254988  )
        19           C   tau(  19) = (   0.0981522   0.4849593   0.4519611  )
        20           C   tau(  20) = (   0.3569104   0.5163900   0.0416029  )
        21           C   tau(  21) = (   0.4248178   0.0994604   0.3833638  )
        22           C   tau(  22) = (   0.1639424   0.9010006   0.7933713  )
        23           C   tau(  23) = (   0.0588120   0.3950355   0.3866953  )
        24           C   tau(  24) = (   0.2984059   0.6050320   0.7961934  )
        25           C   tau(  25) = (   0.7787122   0.9714307   0.4288486  )
        26           C   tau(  26) = (   0.5379730   0.0311503   0.0183277  )
        27           C   tau(  27) = (   0.8806882   0.0117868   0.4489838  )
        28           C   tau(  28) = (   0.6394042   0.9891499   0.0379124  )
        29           C   tau(  29) = (   0.9400787   0.9715829   0.5343281  )
        30           C   tau(  30) = (   0.6997920   0.0283934   0.1231482  )
        31           C   tau(  31) = (   0.6986021   0.5304580   0.4324635  )
        32           C   tau(  32) = (   0.9580382   0.4720800   0.0229252  )
        33           C   tau(  33) = (   0.7341003   0.6142040   0.4982314  )
        34           C   tau(  34) = (   0.9948422   0.3892302   0.0892369  )
        35           C   tau(  35) = (   0.7384981   0.8904717   0.4955761  )
        36           C   tau(  36) = (   0.4991718   0.1123917   0.0856467  )
        37           C   tau(  37) = (   0.8947360   0.8906489   0.5977380  )
        38           C   tau(  38) = (   0.6557880   0.1097029   0.1871645  )
        39           C   tau(  39) = (   0.5756247   0.6098498   0.5975737  )
        40           C   tau(  40) = (   0.8367152   0.3921904   0.1884642  )
        41           C   tau(  41) = (   0.5350715   0.5258264   0.5351012  )
        42           C   tau(  42) = (   0.7948780   0.4753867   0.1254988  )
        43           C   tau(  43) = (   0.5981522   0.4849593   0.4519611  )
        44           C   tau(  44) = (   0.8569104   0.5163900   0.0416029  )
        45           C   tau(  45) = (   0.9248178   0.0994604   0.3833638  )
        46           C   tau(  46) = (   0.6639424   0.9010006   0.7933713  )
        47           C   tau(  47) = (   0.5588110   0.3950355   0.3866953  )
        48           C   tau(  48) = (   0.7984059   0.6050320   0.7961934  )
        49           F   tau(  49) = (   0.5396625   0.0055499   0.5574463  )
        50           F   tau(  50) = (   0.9579154   0.9984451   0.7577979  )
        51           F   tau(  51) = (   0.2623691   0.4959980   0.3520676  )
        52           F   tau(  52) = (   0.1960894   0.5135219   0.1475539  )
        53           F   tau(  53) = (   0.7176447   0.0055058   0.3467134  )
        54           F   tau(  54) = (   0.4579154   0.9984451   0.7577979  )
        55           F   tau(  55) = (   0.7623700   0.4959970   0.3520684  )
        56           F   tau(  56) = (   0.6960894   0.5135219   0.1475539  )
        57           H   tau(  57) = (   0.2290596   1.0009978   0.3640502  )
        58           H   tau(  58) = (   0.0198054   1.0002267   0.5533467  )
        59           H   tau(  59) = (   0.2791988   1.0000865   0.1418054  )
        60           H   tau(  60) = (  -0.0086584   0.5011092   0.7809458  )
[...]
        94           O   tau(  94) = (   0.3551690   0.6519036   0.7240468  )
        95           O   tau(  95) = (   0.3707656   0.1477170   0.3098797  )
        96           O   tau(  96) = (   0.1091506   0.8535652   0.7199135  )
        97           O   tau(  97) = (   0.4642788   0.3566669   0.3968154  )
        98           O   tau(  98) = (   0.2033039   0.6423280   0.8050417  )
        99           O   tau(  99) = (   0.0200847   0.1353504   0.3952413  )
       100           O   tau( 100) = (   0.2588616   0.8639860   0.8046490  )
       101           O   tau( 101) = (   0.6158110   0.3481839   0.3145586  )
       102           O   tau( 102) = (   0.8551690   0.6519036   0.7240468  )
       103           O   tau( 103) = (   0.8707656   0.1477170   0.3098797  )
       104           O   tau( 104) = (   0.6091506   0.8535652   0.7199135  )
       105           O   tau( 105) = (   0.9642788   0.3566669   0.3968154  )
       106           O   tau( 106) = (   0.7033039   0.6423280   0.8050417  )
       107           O   tau( 107) = (   0.5200847   0.1353504   0.3952413  )
       108           O   tau( 108) = (   0.7588616   0.8639860   0.8046490  )

     number of k points=     1  Marzari-Vanderbilt smearing, width (Ry)=  0.2000
                       cart. coord. in units 2pi/alat
[...]
     atom:   52    charge:    4.4870    magn:    0.0081    constr:    0.0000
     atom:   53    charge:    4.5160    magn:    0.0075    constr:    0.0000
     atom:   54    charge:    4.2303    magn:    0.0065    constr:    0.0000
     atom:   55    charge:    4.4113    magn:    0.0068    constr:    0.0000
     atom:   56    charge:    4.4430    magn:    0.0082    constr:    0.0000
     atom:   57    charge:    0.4214    magn:   -0.0010    constr:    0.0000
     atom:   58    charge:    0.4374    magn:   -0.0012    constr:    0.0000
     atom:   59    charge:    0.4817    magn:   -0.0014    constr:    0.0000
     atom:   60    charge:    0.4426    magn:   -0.0012    constr:    0.0000
[...]
     atom:   94    charge:    3.2406    magn:    0.0640    constr:    0.0000
     atom:   95    charge:    3.2485    magn:    0.0629    constr:    0.0000
     atom:   96    charge:    3.2494    magn:    0.0639    constr:    0.0000
     atom:   97    charge:    3.2378    magn:    0.0657    constr:    0.0000
     atom:   98    charge:    3.2456    magn:    0.0653    constr:    0.0000
     atom:   99    charge:    3.2435    magn:    0.0676    constr:    0.0000
     atom:  100    charge:    3.2511    magn:    0.0672    constr:    0.0000
     atom:  101    charge:    3.2571    magn:    0.0627    constr:    0.0000
     atom:  102    charge:    3.2425    magn:    0.0644    constr:    0.0000
     atom:  103    charge:    3.2615    magn:    0.0638    constr:    0.0000
     atom:  104    charge:    3.2300    magn:    0.0654    constr:    0.0000
     atom:  105    charge:    3.2369    magn:    0.0663    constr:    0.0000
     atom:  106    charge:    3.2570    magn:    0.0656    constr:    0.0000
     atom:  107    charge:    3.2386    magn:    0.0656    constr:    0.0000
     atom:  108    charge:    3.2068    magn:    0.0677    constr:    0.0000

     End of self-consistent calculation

 ------ SPIN UP ------------

[...]

 ------ SPIN DOWN ----------

          k = 0.0000 0.0000 0.0000 ( 91663 PWs)   bands (ev):

   -25.8016 -25.7926 -25.7903 -25.7817 -25.7710 -25.7297 -25.7243 -25.7197
   -22.1343 -22.1080 -22.0952 -22.0941 -21.9952 -21.9738 -21.9701 -21.9685
   -19.0934 -19.0702 -19.0649 -19.0458 -19.0408 -19.0334 -19.0295 -19.0237
   -19.0202 -19.0173 -19.0151 -18.9905 -18.9542 -18.9462 -18.9346 -18.9126
   -15.3101 -15.2813 -15.2628 -15.2477 -15.2302 -15.2268 -15.2183 -15.2020
   -13.9053 -13.8880 -13.8767 -13.8422 -13.8214 -13.8120 -13.7580 -13.7556
   -11.7397 -11.6539 -11.6342 -11.5897 -11.5671 -11.5493 -11.5314 -11.5130
   -10.8552 -10.8389 -10.8248 -10.8034 -10.7766 -10.7700 -10.7512 -10.7407
    -9.5121  -9.3138  -9.3094  -9.2645  -9.1465  -9.0825  -9.0544  -9.0085
    -8.3970  -8.3379  -8.3122  -8.2730  -8.2472  -8.2154  -8.1972  -8.1708
    -7.7713  -7.7349  -7.7250  -7.7109  -7.6826  -7.6589  -7.6485  -7.6288
    -7.5756  -7.3021  -7.2941  -7.2546  -7.0219  -6.9807  -6.8999  -6.8654
    -6.7009  -6.6941  -6.6694  -6.6042  -6.5840  -6.5307  -6.5225  -6.5047
    -6.4852  -6.4390  -6.3571  -6.3426  -6.3095  -6.2792  -6.2582  -6.1801
    -6.1067  -6.0939  -6.0762  -6.0562  -6.0342  -6.0182  -5.9529  -5.9041
    -5.8386  -5.7631  -5.7474  -5.7320  -5.6213  -5.5994  -5.5360  -5.5053
    -5.4905  -5.4835  -5.4663  -5.4483  -5.4219  -5.3988  -5.3488  -5.3329
    -4.9368  -4.8736  -4.8600  -4.7957  -4.7759  -4.7248  -4.6794  -4.6543
    -4.6336  -4.6178  -4.5942  -4.5661  -4.5281  -4.5055  -4.4830  -4.4403
    -4.3724  -4.1159  -4.0914  -4.0014  -3.9369  -3.9073  -3.8551  -3.8236
    -3.7705  -3.7561  -3.6822  -3.4971  -3.4235  -3.2782  -3.2100  -3.1596
    -2.9731  -2.9620  -2.8523  -2.7888  -2.7313  -2.7046  -2.5756  -2.5144
    -2.4900  -2.4805  -2.4223  -2.4150  -2.3964  -2.3756  -2.3468  -2.3048
    -2.2780  -2.2054  -2.1498  -2.0733  -2.0206  -2.0051  -1.9726  -1.9088
    -1.8550  -1.8404  -1.7983  -1.7623  -1.7476  -1.6534  -1.5632  -1.5038
    -1.3046  -1.2876  -1.2791  -1.2604  -1.2440  -1.2109  -1.1943  -1.1428
    -1.0419  -1.0364  -1.0311  -0.9521  -0.9444  -0.9400  -0.9273  -0.9080
    -0.8753  -0.8287  -0.7986  -0.7769   0.8191   0.8664   0.8885   0.9282
     1.0862   1.1150   1.1384   1.1961   2.2313   2.2590   2.2880   2.3097
     2.3302   2.3439   2.4010   2.4294   3.4956   3.5236   3.5666   3.5968
     3.6739   3.7511   3.8026   3.8231   3.9501   4.6024   4.6891   4.7514
     4.8078   4.8286   4.8640   4.9216   4.9431   4.9819   5.0050   5.0579
     5.4032   5.4624   5.5975   5.7437   5.7831   5.8471   6.0416   6.0897
     6.1458   6.1903   6.2665   6.5016   6.7733   6.8201   6.9306   6.9679
     7.0066   7.0333

     the spin up/dw Fermi energies are     0.6005    0.2274 ev

!    total energy              =   -1998.10369836 Ry
     Harris-Foulkes estimate   =   -1998.10369835 Ry
     estimated scf accuracy    <          2.9E-09 Ry

     The total energy is the sum of the following terms:

     one-electron contribution =   -2809.78867866 Ry
     hartree contribution      =    1571.03904432 Ry
     xc contribution           =    -560.73858339 Ry
     ewald contribution        =    -200.96078619 Ry
     Dispersion Correction     =      -0.45530044 Ry
     smearing contrib. (-TS)   =       2.80060600 Ry

     total magnetization       =     8.00 Bohr mag/cell
     absolute magnetization    =     8.27 Bohr mag/cell

     convergence has been achieved in  11 iterations

     Forces acting on atoms (cartesian axes, Ry/au):

     atom    1 type  1   force =    -0.00026575   -0.00014429    0.00016945
     atom    2 type  1   force =    -0.00004914    0.00015239   -0.00026737
     atom    3 type  1   force =     0.00016516    0.00031561    0.00020082
     atom    4 type  1   force =    -0.00046727    0.00021262   -0.00006119
     atom    5 type  1   force =     0.00007770    0.00015333    0.00008904
     atom    6 type  1   force =    -0.00002509    0.00022674   -0.00015444
     atom    7 type  1   force =    -0.00046357    0.00032219    0.00032171
     atom    8 type  1   force =    -0.00015054   -0.00022375   -0.00022547
     atom    9 type  1   force =     0.00026955   -0.00032711   -0.00012180
     atom   10 type  1   force =     0.00024236   -0.00000284    0.00026603
     atom   11 type  1   force =     0.00010858    0.00046772    0.00039256
     atom   12 type  1   force =     0.00000134   -0.00011819   -0.00013350
     atom   13 type  1   force =    -0.00011398   -0.00042841   -0.00019403
     atom   14 type  1   force =     0.00005811    0.00013795   -0.00015505
     atom   15 type  1   force =    -0.00035237    0.00011465   -0.00014170
     atom   16 type  1   force =     0.00029819   -0.00042913   -0.00013534
     atom   17 type  1   force =     0.00012685   -0.00002226   -0.00011022
     atom   18 type  1   force =     0.00004622    0.00010221    0.00011336
     atom   19 type  1   force =     0.00040785    0.00015296   -0.00003007
     atom   20 type  1   force =    -0.00014568   -0.00006806    0.00022478
     atom   21 type  1   force =    -0.00063324   -0.00027761    0.00020024
     atom   22 type  1   force =     0.00011678   -0.00025254    0.00014986
     atom   23 type  1   force =    -0.00030039   -0.00038404    0.00008711
     atom   24 type  1   force =     0.00053277   -0.00025531    0.00008103
     atom   25 type  1   force =    -0.00010675   -0.00028489   -0.00030679
     atom   26 type  1   force =     0.00009342    0.00048950   -0.00000287
     atom   27 type  1   force =    -0.00021871   -0.00014228    0.00032219
     atom   28 type  1   force =    -0.00011661   -0.00009108    0.00017675
     atom   29 type  1   force =    -0.00013652    0.00017224    0.00002205
     atom   30 type  1   force =    -0.00048554    0.00003790    0.00024806
     atom   31 type  1   force =     0.00006956    0.00018527   -0.00000168
     atom   32 type  1   force =    -0.00002005   -0.00013042   -0.00010425
     atom   33 type  1   force =     0.00026751   -0.00039048    0.00004598
     atom   34 type  1   force =     0.00017508    0.00021931    0.00020813
     atom   35 type  1   force =     0.00032148    0.00060523    0.00001882
     atom   36 type  1   force =     0.00022454   -0.00099116    0.00018763
     atom   37 type  1   force =    -0.00000910   -0.00038008   -0.00044782
     atom   38 type  1   force =     0.00033776    0.00021135   -0.00056947
     atom   39 type  1   force =     0.00002145    0.00015697   -0.00016879
     atom   40 type  1   force =     0.00038763   -0.00030012   -0.00012310
     atom   41 type  1   force =    -0.00002219    0.00001306    0.00002220
     atom   42 type  1   force =    -0.00046905    0.00031595    0.00034448
     atom   43 type  1   force =     0.00036149    0.00012180   -0.00009514
     atom   44 type  1   force =     0.00006219   -0.00000487    0.00031205
     atom   45 type  1   force =    -0.00009258    0.00047848   -0.00007395
     atom   46 type  1   force =     0.00005177   -0.00054969   -0.00018051
     atom   47 type  1   force =     0.00035786    0.00009023    0.00007396
     atom   48 type  1   force =     0.00042538   -0.00015595    0.00006840
     atom   49 type  2   force =    -0.00009240   -0.00017843   -0.00017843
     atom   50 type  2   force =    -0.00046737    0.00013709   -0.00017143
     atom   51 type  2   force =     0.00019868   -0.00017004   -0.00014090
     atom   52 type  2   force =    -0.00001996    0.00011130    0.00024941
     atom   53 type  2   force =    -0.00006607   -0.00054967   -0.00046949
     atom   54 type  2   force =    -0.00022489   -0.00001324   -0.00018452
     atom   55 type  2   force =     0.00021096   -0.00016276    0.00005351
     atom   56 type  2   force =     0.00019628    0.00003524   -0.00018212
     atom   57 type  3   force =    -0.00022396    0.00019685    0.00042733
     atom   58 type  3   force =     0.00002123    0.00005603   -0.00015836
     atom   59 type  3   force =    -0.00040794   -0.00019661   -0.00004095
     atom   60 type  3   force =    -0.00000365   -0.00038457   -0.00011265
[...]
     atom   94 type  6   force =     0.00017167    0.00045336   -0.00007109
     atom   95 type  6   force =    -0.00035299    0.00069652   -0.00002505
     atom   96 type  6   force =     0.00053612   -0.00048377   -0.00008210
     atom   97 type  6   force =     0.00045102   -0.00071403   -0.00066444
     atom   98 type  6   force =     0.00011599    0.00032000    0.00016330
     atom   99 type  6   force =    -0.00074463    0.00034567   -0.00035075
     atom  100 type  6   force =    -0.00055800   -0.00050049   -0.00028156
     atom  101 type  6   force =     0.00014603   -0.00006251   -0.00035511
     atom  102 type  6   force =     0.00019607    0.00028212    0.00008419
     atom  103 type  6   force =     0.00016098    0.00018562    0.00012244
     atom  104 type  6   force =     0.00055849   -0.00058154   -0.00000926
     atom  105 type  6   force =     0.00065813   -0.00058806   -0.00045231
     atom  106 type  6   force =     0.00035130    0.00062242    0.00004977
     atom  107 type  6   force =     0.00000810    0.00050542   -0.00015417
     atom  108 type  6   force =    -0.00056460    0.00003865   -0.00033334

     Total force =     0.005049     Total SCF correction =     0.000134

     bfgs converged in  44 scf cycles and  43 bfgs steps
     (criteria: energy <  1.0E-04 Ry, force <  1.0E-03 Ry/Bohr)

     End of BFGS Geometry Optimization

     Final energy   =   -1998.1036983580 Ry
Begin final coordinates

ATOMIC_POSITIONS (crystal)
C             0.2851183527        0.9795785106        0.5306296611
C             0.0389490713        0.0339925644        0.0269996148
C             0.3902055873        0.0160759030        0.5457411269
C             0.1408104474        0.9876948474        0.0465563229
C             0.4533115615        0.9650480362        0.6425808796
C             0.2020117075        0.0290362240        0.1502070648
C             0.2123596138        0.5294609055        0.5337481280
C             0.4591463732        0.4774069981        0.0344908762
C             0.2481841245        0.6137871064        0.6146010651
C             0.4959927587        0.3923756208        0.1123705549
C             0.2467265160        0.8978477081        0.6102973904
C             0.0011787481        0.1139158754        0.1110380526
C             0.4116454002        0.8810742681        0.7183166603
C             0.1614642458        0.1097709269        0.2299944102
C             0.0878501588        0.6115191699        0.7251731680
C             0.3352437664        0.3834920463        0.2216643208
C             0.0486473084        0.5275356879        0.6472789896
C             0.2945565762        0.4695305921        0.1459751904
C             0.1108104571        0.4830369190        0.5497746248
C             0.3564941571        0.5186148351        0.0496956944
C             0.4325423411        0.1035865134        0.4667497578
C             0.1816574887        0.9006755475        0.9652646295
C             0.0705242961        0.3930835810        0.4709289836
C             0.3155432125        0.6079665940        0.9699156346
C             0.7880892807        0.9643230812        0.5223679963
C             0.5324324507        0.0293884245        0.0284854952
C             0.8912675196        0.0080897400        0.5409374316
C             0.6375008111        0.9889549266        0.0403720713
C             0.9536806945        0.9619126695        0.6401738691
C             0.7024595420        0.0381452373        0.1349764791
C             0.7112235297        0.5282628054        0.5337095023
C             0.9598594972        0.4751076743        0.0344552743
C             0.7478930049        0.6112793946        0.6157112935
C             0.9970057656        0.3904234057        0.1126129729
C             0.7502964374        0.8828480165        0.6045784036
C             0.4954805012        0.1099035903        0.1127186169
C             0.9128940933        0.8801875463        0.7185131841
C             0.6627025194        0.1197485155        0.2146296520
C             0.5870547580        0.6099683998        0.7258508627
C             0.8365273187        0.3818424610        0.2227197224
C             0.5471468525        0.5270716699        0.6469586804
C             0.7955640011        0.4674974552        0.1467675610
C             0.6091186465        0.4830153563        0.5490423096
C             0.8572459950        0.5162597802        0.0500469110
C             0.9325125852        0.0979847366        0.4642444280
C             0.6781901475        0.8995078583        0.9622044806
C             0.5682688738        0.3942121625        0.4691907450
C             0.8160479645        0.6055854515        0.9705900507
F             0.5519805221       -0.0055306987        0.6678973638
F             0.9746977548        1.0062094574        0.9306086002
F             0.2782960192        0.4975005548        0.4446782337
F             0.1978746327        0.5025309724        0.1708185914
F             0.7225613195       -0.0037952782        0.4294316105
F             0.4637049298        0.9948409324        0.9403911315
F             0.7769119633        0.4963106855        0.4443497509
F             0.6990153391        0.5006809587        0.1718615191
H             0.2309022040        1.0153430281        0.4590072567
H             0.0340365639        0.9907565298        0.6611233836
H             0.2817333132        0.9981677111        0.1712002583
H             0.0131474699        0.5094848777        0.9637031936
[...]
O             0.3728626531        0.6546703292        0.8838576798
O             0.3755309276        0.1515143748        0.3782605261
O             0.1264987614        0.8536682305        0.8747774339
O             0.4725124179        0.3589667849        0.4803426136
O             0.2205753394        0.6453655126        0.9780054399
O             0.0285139330        0.1325845299        0.4802710651
O             0.2771076526        0.8644226545        0.9802326346
O             0.6232646581        0.3448172426        0.3834526801
O             0.8731543153        0.6527072980        0.8846690810
O             0.8771454479        0.1490609656        0.3773290376
O             0.6222183676        0.8466969105        0.8777179070
O             0.9745589344        0.3580645980        0.4816084279
O             0.7209569584        0.6426600642        0.9789574738
O             0.5282948123        0.1391624241        0.4785765671
O             0.7752326514        0.8665732018        0.9746424761
End final coordinates

     Writing output data file ./QE_relaxation_results/pbesol_relax/NiPyC2_relax_sc211_meta_functionalized_F_pbesol_relax.save/

     General routines

     Parallel routines

   This run was terminated on:  11:48: 8  22Jun2020

   JOB DONE.
QE finished Mon Jun 22 11:48:08 PDT 2020