     Program PWSCF v.6.6 starts on 17Nov2020 at 10:34:13

     K-points division:     npool     =       2
     R & G space division:  proc/nbgrp/npool/nimage =      16
     Fft bands division:     nmany     =       1
     Reading input from ./QE_input_scripts/pw.NiPyC2_vdw-df2-vc-relax.in

     Current dimensions of program PWSCF are:
     Max number of different atomic species (ntypx) = 10
     Max number of k-points (npk) =  40000
     Max angular momentum in pseudopotentials (lmaxx) =  3

     IMPORTANT: XC functional enforced from input :
     Exchange-correlation= VDW-DF2
                           (   1   4  13   0   2   0   0)
     Any further DFT definition will be discarded
     Please, verify this is what you really want

     Parameters for Dispersion (Grimme-D2) Correction:
       atom      VdW radius       C_6

        C          2.744         60.710
        H          1.892          4.857
        N          2.640         42.670
        Ni         2.952        374.666
        O          2.536         24.284

     gamma-point specific algorithms are used

     Message from routine setup:
     using ibrav=0 with symmetry is DISCOURAGED, use correct ibrav instead

     bravais-lattice index     =            0
     lattice parameter (alat)  =      11.8161  a.u.
     unit-cell volume          =    5429.3113 (a.u.)^3
     number of atoms/cell      =           54
     number of atomic types    =            5
     number of electrons       =       200.00 (up: 102.00, down:  98.00)
     number of Kohn-Sham states=          122
     kinetic-energy cutoff     =     100.0000  Ry
     charge density cutoff     =     400.0000  Ry
     convergence threshold     =      1.0E-06
     mixing beta               =       0.7000
     number of iterations used =            8  local-TF  mixing
     Exchange-correlation= VDW-DF2
                           (   1   4  13   0   2   0   0)
     nstep                     =          200

     celldm(1)=  11.816080  celldm(2)=   0.000000  celldm(3)=   0.000000
     celldm(4)=   0.000000  celldm(5)=   0.000000  celldm(6)=   0.000000

     crystal axes: (cart. coord. in units of alat)
               a(1) = (   1.000000   0.000000   0.000000 )
               a(2) = (   0.000000   2.002847   0.000000 )
               a(3) = (  -0.036399   0.000000   1.643149 )

     reciprocal axes: (cart. coord. in units 2 pi/alat)
               b(1) = (  1.000000  0.000000  0.022152 )
               b(2) = (  0.000000  0.499289  0.000000 )
               b(3) = (  0.000000  0.000000  0.608588 )

     PseudoPot. # 1 for C  read from file:
     ./pseudo/C.pbesol-nc.UPF
     MD5 check sum: ce26087537ded160c8d400e183a8bf42
     Pseudo is Norm-conserving, Zval =  4.0
     Generated using "atomic" code by A. Dal Corso v.6.5
     Using radial grid of 1073 points,  1 beta functions with:
                l(1) =   1

     PseudoPot. # 2 for H  read from file:
     ./pseudo/H.pbesol-n-nc.UPF
     MD5 check sum: 7995ef24074557c85b430109caaacc09
     Pseudo is Norm-conserving, Zval =  1.0
     Generated using "atomic" code by A. Dal Corso v.6.5
     Using radial grid of  929 points,  0 beta functions with:

     PseudoPot. # 3 for N  read from file:
     ./pseudo/N.pbesol-nc.UPF
     MD5 check sum: e18cc5e4b8a5600c1a19b30c2cab1ca0
     Pseudo is Norm-conserving, Zval =  5.0
     Generated using "atomic" code by A. Dal Corso v.6.5
     Using radial grid of 1085 points,  1 beta functions with:
                l(1) =   1

     PseudoPot. # 4 for Ni read from file:
     ./pseudo/Ni.pbesol-n-nc.UPF
     MD5 check sum: 623411631e0c2eb7c0b2b9815547d2d9
     Pseudo is Norm-conserving + core correction, Zval = 10.0
     Generated using "atomic" code by A. Dal Corso v.6.5
     Using radial grid of 1195 points,  2 beta functions with:
                l(1) =   1
                l(2) =   2

     PseudoPot. # 5 for O  read from file:
     ./pseudo/O.pbesol-nc.UPF
     MD5 check sum: 73d10e7e91dbfcbe8a7e362101007f84
     Pseudo is Norm-conserving, Zval =  6.0
     Generated using "atomic" code by A. Dal Corso v.6.5
     Using radial grid of 1095 points,  1 beta functions with:
                l(1) =   1

     atomic species   valence    mass     pseudopotential
        C              4.00    12.01070     C ( 1.00)
        H              1.00     1.00794     H ( 1.00)
        N              5.00    14.00670     N ( 1.00)
        Ni            10.00    58.69340     Ni( 1.00)
        O              6.00    15.99940     O ( 1.00)

     Starting magnetic structure
     atomic species   magnetization
        C            0.000
        H            0.000
        N            0.000
        Ni           0.250
        O            0.000

      2 Sym. Ops. (no inversion) found ( 1 have fractional translation)

   Cartesian axes

     site n.     atom                  positions (alat units)
         1           C   tau(   1) = (   0.5691129   1.9213309   0.8435924  )
         2           C   tau(   2) = (   0.7737740   1.9988410   0.8769484  )
         3           C   tau(   3) = (   0.8939722   1.9119175   1.0440566  )
         4           C   tau(   4) = (   0.3878954   1.0396777   0.8940371  )
         5           C   tau(   5) = (   0.4576709   1.2081171   1.0215454  )
         6           C   tau(   6) = (   0.4898428   1.7643077   0.9776734  )
         7           C   tau(   7) = (   0.8025222   1.7578986   1.1727151  )
         8           C   tau(   8) = (   0.1377615   1.2107208   1.2070569  )
         9           C   tau(   9) = (   0.0584822   1.0420812   1.0887502  )
        10           C   tau(  10) = (   0.1873493   0.9553579   0.9277216  )
        11           C   tau(  11) = (   0.8614386   0.1788542   0.7476326  )
        12           C   tau(  12) = (   0.1044740   0.7734994   0.7911760  )
        13           C   tau(  13) = (   0.0873123   0.0815159   0.0220182  )
        14           C   tau(  14) = (   0.2919734   0.0040057   0.0553741  )
        15           C   tau(  15) = (   0.4121716   0.0909292   0.2224823  )
        16           C   tau(  16) = (   0.9060948   0.9631690   0.0724628  )
        17           C   tau(  17) = (   0.9758703   0.7947296   0.1999712  )
        18           C   tau(  18) = (   0.0080421   0.2385390   0.1560991  )
        19           C   tau(  19) = (   0.3207216   0.2449482   0.3511408  )
        20           C   tau(  20) = (   0.6559609   0.7921259   0.3854826  )
        21           C   tau(  21) = (   0.5766816   0.9607656   0.2671759  )
        22           C   tau(  22) = (   0.7055486   1.0474888   0.1061474  )
        23           C   tau(  23) = (   0.3432392   1.8239925   1.5692068  )
        24           C   tau(  24) = (   0.5862746   1.2293473   1.6127503  )
        25           H   tau(  25) = (   0.4840353   1.9752074   0.7297223  )
        26           H   tau(  26) = (   0.0365226   1.9583835   1.0688681  )
        27           H   tau(  27) = (   0.4777087   0.9833977   0.7850964  )
        28           H   tau(  28) = (   0.5969732   1.2643971   0.9988700  )
        29           H   tau(  29) = (   0.3510215   1.7084283   0.9515473  )
        30           H   tau(  30) = (   0.8848144   1.6990149   1.2859280  )
        31           H   tau(  31) = (   0.0501555   1.2710065   1.3156690  )
        32           H   tau(  32) = (   0.9198816   0.9864020   1.1158622  )
        33           H   tau(  33) = (  -0.0341640   0.0276393   1.5512965  )
        34           H   tau(  34) = (   0.5547220   0.0444632   0.2472939  )
        35           H   tau(  35) = (   0.9595093   1.0194490   1.6066706  )
        36           H   tau(  36) = (   0.1151726   0.7384496   0.1772957  )
        37           H   tau(  37) = (   0.8692209   0.2944185   0.1299730  )
        38           H   tau(  38) = (   0.4030137   0.3038318   0.4643538  )
        39           H   tau(  39) = (   0.5683549   0.7318402   0.4940948  )
        40           H   tau(  40) = (   0.4380810   1.0164447   0.2942879  )
        41           N   tau(  41) = (   0.6025592   1.6881995   1.1439600  )
        42           N   tau(  42) = (   0.3350713   1.2940393   1.1750155  )
        43           N   tau(  43) = (   0.1207586   0.3146472   0.3223857  )
        44           N   tau(  44) = (   0.8532706   0.7088075   0.3534412  )
        45           Ni  tau(  45) = (   0.4642458   1.5100663   1.3793082  )
        46           Ni  tau(  46) = (   0.9824452   0.4927804   0.5577339  )
        47           O   tau(  47) = (   0.2269989   0.7002353   0.6455930  )
        48           O   tau(  48) = (   0.7414252   0.2665388   0.6082936  )
        49           O   tau(  49) = (   0.9187989   0.7054627   0.8171378  )
        50           O   tau(  50) = (   0.0492397   0.2399410   0.7791810  )
        51           O   tau(  51) = (   0.7087996   1.3026115   1.4671673  )
        52           O   tau(  52) = (   0.2232258   1.7363079   1.4298678  )
        53           O   tau(  53) = (   0.4005995   1.2973840   1.6387120  )
        54           O   tau(  54) = (   0.5310404   1.7629057   1.6007553  )

     number of k points=     1  Marzari-Vanderbilt smearing, width (Ry)=  0.2000
                       cart. coord. in units 2pi/alat
        k(    1) = (   0.0000000   0.0000000   0.0000000), wk =   1.0000000

     Check: negative core charge=   -0.000145
     Generating pointlists ...
     new r_m :   0.0626 (alat units)  0.7399 (a.u.) for type    1
     new r_m :   0.0626 (alat units)  0.7399 (a.u.) for type    2
     new r_m :   0.0882 (alat units)  1.0416 (a.u.) for type    3
     new r_m :   0.1337 (alat units)  1.5801 (a.u.) for type    4
     new r_m :   0.0823 (alat units)  0.9721 (a.u.) for type    5

     Initial potential from superposition of free atoms

     starting charge  199.99835, renormalised to  200.00000

     %%%%%%%%%%%%%%%%%%%%%%%%%%%%%%%%%%%%%%%%%%%%%%%%%%%%%%%%%%%%%%%%%%%%%%%%
     %                                                                      %
     % You are using vdW-DF, which was implemented by the Thonhauser group. %
     % Please cite the following two papers that made this development      %
     % possible and the two reviews that describe the various versions:     %
     %                                                                      %
     %   T. Thonhauser et al., PRL 115, 136402 (2015).                      %
     %   T. Thonhauser et al., PRB 76, 125112 (2007).                       %
     %   K. Berland et al., Rep. Prog. Phys. 78, 066501 (2015).             %
     %   D.C. Langreth et al., J. Phys.: Condens. Matter 21, 084203 (2009). %
     %                                                                      %
     %                                                                      %
     % If you are calculating the stress with vdW-DF, please also cite:     %
     %                                                                      %
     %   R. Sabatini et al., J. Phys.: Condens. Matter 24, 424209 (2012).   %
     %                                                                      %
     %%%%%%%%%%%%%%%%%%%%%%%%%%%%%%%%%%%%%%%%%%%%%%%%%%%%%%%%%%%%%%%%%%%%%%%%

     Performing spin-balanced Ecnl calculation!
[...]
        C            0.003
        H           -0.001
        N            0.003
        Ni           0.192
        O            0.013

      2 Sym. Ops. (no inversion) found ( 1 have fractional translation)

   Cartesian axes

     site n.     atom                  positions (alat units)
         1           C   tau(   1) = (   0.6222940   1.9967516   0.9218223  )
         2           C   tau(   2) = (   0.8316264   2.0720473   0.9529854  )
         3           C   tau(   3) = (   0.9506997   1.9839855   1.1222941  )
         4           C   tau(   4) = (   0.4293613   1.0804919   0.9357075  )
         5           C   tau(   5) = (   0.5029903   1.2457424   1.0716335  )
         6           C   tau(   6) = (   0.5385756   1.8386755   1.0604214  )
         7           C   tau(   7) = (   0.8562741   1.8266447   1.2553093  )
         8           C   tau(   8) = (   0.1790328   1.2512234   1.2566234  )
         9           C   tau(   9) = (   0.0952011   1.0856080   1.1266382  )
        10           C   tau(  10) = (   0.2218106   0.9981510   0.9626686  )
        11           C   tau(  11) = (   0.9228649   0.1854962   0.8132932  )
        12           C   tau(  12) = (   0.1404938   0.8216914   0.8203494  )
        13           C   tau(  13) = (   0.0931604   0.0628914   0.0499948  )
        14           C   tau(  14) = (   0.3024928  -0.0124043   0.0811579  )
        15           C   tau(  15) = (   0.4215661   0.0756576   0.2504666  )
        16           C   tau(  16) = (   0.9948937   0.9791512   0.0638800  )
        17           C   tau(  17) = (   1.0685226   0.8139007   0.1998060  )
        18           C   tau(  18) = (   0.0094420   0.2209676   0.1885939  )
        19           C   tau(  19) = (   0.3271405   0.2329983   0.3834818  )
        20           C   tau(  20) = (   0.7445652   0.8084197   0.3847959  )
        21           C   tau(  21) = (   0.6607334   0.9740350   0.2548107  )
        22           C   tau(  22) = (   0.7873430   1.0614920   0.0908411  )
        23           C   tau(  23) = (   0.3573326   1.8741469   1.6851207  )
        24           C   tau(  24) = (   0.6696274   1.2379516   1.6921769  )
        25           H   tau(  25) = (   0.5222601   2.0584633   0.7963276  )
        26           H   tau(  26) = (   0.0173737   2.0333703   1.1555111  )
        27           H   tau(  27) = (   0.5354890   1.0192802   0.8149763  )
        28           H   tau(  28) = (   0.6617102   1.3106055   1.0536351  )
        29           H   tau(  29) = (   0.3783187   1.7789031   1.0393247  )
        30           H   tau(  30) = (   0.9449810   1.7569945   1.3855061  )
        31           H   tau(  31) = (   0.0838634   1.3214306   1.3820001  )
        32           H   tau(  32) = (   1.0300877   1.0304376   1.1577496  )
        33           H   tau(  33) = (  -0.0432723   0.0011797   1.6681551  )
        34           H   tau(  34) = (   0.5829060   0.0262728   0.2836836  )
        35           H   tau(  35) = (   1.0646226   1.0403628   1.6868038  )
        36           H   tau(  36) = (   0.1325766   0.7490376   0.1818076  )
        37           H   tau(  37) = (   0.9438510   0.2807400   0.1674972  )
        38           H   tau(  38) = (   0.4158474   0.3026486   0.5136787  )
        39           H   tau(  39) = (   0.6493957   0.7382125   0.5101726  )
        40           H   tau(  40) = (   0.5009541   1.0292054   0.2859221  )
        41           N   tau(  41) = (   0.6523413   1.7573648   1.2262863  )
        42           N   tau(  42) = (   0.3802309   1.3286794   1.2305501  )
        43           N   tau(  43) = (   0.1232077   0.3022783   0.3544588  )
        44           N   tau(  44) = (   0.9457633   0.7309637   0.3587226  )
        45           Ni  tau(  45) = (   0.5053349   1.5503692   1.4553982  )
        46           Ni  tau(  46) = (   1.0708672   0.5092739   0.5835707  )
        47           O   tau(  47) = (   0.2551424   0.7391160   0.6714438  )
        48           O   tau(  48) = (   0.8136606   0.2777134   0.6635310  )
        49           O   tau(  49) = (   1.0450639   0.7424379   0.8386987  )
        50           O   tau(  50) = (   0.0197707   0.2547394   0.8366510  )
        51           O   tau(  51) = (   0.7842760   1.3205271   1.5432713  )
        52           O   tau(  52) = (   0.2481283   1.7819297   1.5353585  )
        53           O   tau(  53) = (   0.4795315   1.3172052   1.7105262  )
        54           O   tau(  54) = (   0.5489043   1.8049036   1.7084785  )

     number of k points=     1  Marzari-Vanderbilt smearing, width (Ry)=  0.2000
                       cart. coord. in units 2pi/alat
        k(    1) = (   0.0000000   0.0000000   0.0000000), wk =   1.0000000

     Check: negative core charge=   -0.000131
     Generating pointlists ...

     Initial potential from superposition of free atoms

     starting charge  199.99835, renormalised to  200.00000

     Performing spin-balanced Ecnl calculation!
     Starting wfcs are  178 randomized atomic wfcs

     Self-consistent Calculation

     iteration #  1     ecut=   100.00 Ry     beta= 0.70
     Davidson diagonalization with overlap
     c_bands:  4 eigenvalues not converged
     ethr =  1.00E-06,  avg # of iterations = 20.0

[...]

     total energy              =    -821.89271107 Ry
     estimated scf accuracy    <       0.00000001 Ry

[...]

     iteration # 24     ecut=   100.00 Ry     beta= 0.70
     Davidson diagonalization with overlap
     ethr =  6.75E-12,  avg # of iterations =  7.5

[...]

     Magnetic moment per site:
     atom:    1    charge:    0.5806    magn:    0.0026    constr:    0.0000
     atom:    2    charge:    0.5794    magn:    0.0021    constr:    0.0000
     atom:    3    charge:    0.5800    magn:    0.0026    constr:    0.0000
     atom:    4    charge:    0.5804    magn:    0.0026    constr:    0.0000
     atom:    5    charge:    0.5731    magn:    0.0023    constr:    0.0000
     atom:    6    charge:    0.5734    magn:    0.0023    constr:    0.0000
     atom:    7    charge:    0.5728    magn:    0.0023    constr:    0.0000
     atom:    8    charge:    0.5734    magn:    0.0023    constr:    0.0000
     atom:    9    charge:    0.5800    magn:    0.0026    constr:    0.0000
     atom:   10    charge:    0.5780    magn:    0.0021    constr:    0.0000
     atom:   11    charge:    0.5575    magn:   -0.0015    constr:    0.0000
     atom:   12    charge:    0.5572    magn:   -0.0015    constr:    0.0000
     atom:   13    charge:    0.5806    magn:    0.0026    constr:    0.0000
     atom:   14    charge:    0.5794    magn:    0.0021    constr:    0.0000
     atom:   15    charge:    0.5800    magn:    0.0026    constr:    0.0000
     atom:   16    charge:    0.5804    magn:    0.0026    constr:    0.0000
     atom:   17    charge:    0.5731    magn:    0.0023    constr:    0.0000
     atom:   18    charge:    0.5734    magn:    0.0023    constr:    0.0000
     atom:   19    charge:    0.5728    magn:    0.0023    constr:    0.0000
     atom:   20    charge:    0.5734    magn:    0.0023    constr:    0.0000
     atom:   21    charge:    0.5800    magn:    0.0026    constr:    0.0000
     atom:   22    charge:    0.5780    magn:    0.0021    constr:    0.0000
     atom:   23    charge:    0.5575    magn:   -0.0015    constr:    0.0000
     atom:   24    charge:    0.5572    magn:   -0.0015    constr:    0.0000
     atom:   25    charge:    0.3886    magn:   -0.0005    constr:    0.0000
     atom:   26    charge:    0.3881    magn:   -0.0006    constr:    0.0000
     atom:   27    charge:    0.3885    magn:   -0.0005    constr:    0.0000
     atom:   28    charge:    0.3897    magn:   -0.0004    constr:    0.0000
     atom:   29    charge:    0.3902    magn:   -0.0004    constr:    0.0000
     atom:   30    charge:    0.3876    magn:   -0.0004    constr:    0.0000
     atom:   31    charge:    0.3878    magn:   -0.0004    constr:    0.0000
     atom:   32    charge:    0.3883    magn:   -0.0006    constr:    0.0000
     atom:   33    charge:    0.3886    magn:   -0.0005    constr:    0.0000
     atom:   34    charge:    0.3881    magn:   -0.0006    constr:    0.0000
     atom:   35    charge:    0.3885    magn:   -0.0005    constr:    0.0000
     atom:   36    charge:    0.3897    magn:   -0.0004    constr:    0.0000
     atom:   37    charge:    0.3902    magn:   -0.0004    constr:    0.0000
     atom:   38    charge:    0.3876    magn:   -0.0004    constr:    0.0000
     atom:   39    charge:    0.3878    magn:   -0.0004    constr:    0.0000
     atom:   40    charge:    0.3883    magn:   -0.0006    constr:    0.0000
     atom:   41    charge:    2.4350    magn:    0.0078    constr:    0.0000
     atom:   42    charge:    2.4333    magn:    0.0077    constr:    0.0000
     atom:   43    charge:    2.4350    magn:    0.0078    constr:    0.0000
     atom:   44    charge:    2.4333    magn:    0.0077    constr:    0.0000
     atom:   45    charge:    7.5133    magn:    1.4391    constr:    0.0000
     atom:   46    charge:    7.5133    magn:    1.4391    constr:    0.0000
     atom:   47    charge:    3.1491    magn:    0.0430    constr:    0.0000
     atom:   48    charge:    3.1452    magn:    0.0406    constr:    0.0000
     atom:   49    charge:    3.1487    magn:    0.0394    constr:    0.0000
     atom:   50    charge:    3.1488    magn:    0.0412    constr:    0.0000
     atom:   51    charge:    3.1491    magn:    0.0430    constr:    0.0000
     atom:   52    charge:    3.1452    magn:    0.0406    constr:    0.0000
     atom:   53    charge:    3.1487    magn:    0.0394    constr:    0.0000
     atom:   54    charge:    3.1488    magn:    0.0412    constr:    0.0000

     End of self-consistent calculation

 ------ SPIN UP ------------

[...]

 ------ SPIN DOWN ----------

          k = 0.0000 0.0000 0.0000 ( 54769 PWs)   bands (ev):

   -23.0924 -23.0910 -23.0424 -23.0415 -20.3043 -20.3040 -20.2912 -20.2908
   -20.1115 -20.1034 -20.0500 -20.0459 -16.5637 -16.5287 -16.5245 -16.5109
   -15.3051 -15.2836 -15.2814 -15.2558 -12.7246 -12.6729 -12.6588 -12.6505
   -12.1838 -12.1649 -12.1550 -12.1177 -10.4799 -10.3293 -10.3120 -10.2705
    -9.0578  -8.7356  -8.6674  -8.6289  -8.6112  -8.5608  -8.5372  -8.5196
    -7.9295  -7.8656  -7.8593  -7.8223  -7.5562  -7.5529  -7.4593  -7.3721
    -7.2676  -7.2541  -7.1822  -7.1726  -7.1284  -7.0328  -6.9926  -6.9919
    -6.9294  -6.8914  -6.8395  -6.8229  -6.4695  -6.2964  -6.1390  -5.9902
    -5.4992  -5.4925  -5.4581  -5.4148  -5.3479  -4.7182  -4.6053  -4.5041
    -4.4418  -4.1916  -4.0471  -3.9748  -3.9085  -3.8360  -3.6704  -3.6152
    -3.5848  -3.5729  -3.3682  -3.3147  -3.2843  -3.2783  -3.0853  -3.0341
    -2.9906  -2.9620  -2.9466  -2.8462  -2.6033  -2.4554  -2.4396  -2.4252
    -2.3750  -2.3203  -1.2934  -1.2853  -0.9783  -0.9669   0.7776   0.8636
     0.8727   0.9192   1.3433   1.8259   1.8831   2.0347   2.0790   2.1844
     2.6110   2.8423   3.1774   3.3365   3.3516   3.4128   3.4791   3.5814
     3.5892   3.5996

     the spin up/dw Fermi energies are    -1.1704   -1.3433 ev

!    total energy              =    -821.89271113 Ry
     estimated scf accuracy    <          5.5E-09 Ry
     smearing contrib. (-TS)   =       1.23082286 Ry
     internal energy E=F+TS    =    -823.12353399 Ry

     The total energy is F=E-TS. E is the sum of the following terms:
     one-electron contribution =   -1276.32733243 Ry
     hartree contribution      =     704.29115928 Ry
     xc contribution           =    -257.61821260 Ry
     ewald contribution        =       6.69699580 Ry
     Dispersion Correction     =      -0.16614403 Ry

     total magnetization       =     4.00 Bohr mag/cell
     absolute magnetization    =     4.11 Bohr mag/cell

     convergence has been achieved in  24 iterations

[...]

     Forces acting on atoms (cartesian axes, Ry/au):

     atom    1 type  1   force =    -0.00151936   -0.00048986    0.00062039
     atom    2 type  1   force =    -0.00124419    0.00017087    0.00072328
     atom    3 type  1   force =    -0.00031015   -0.00080249    0.00070160
     atom    4 type  1   force =    -0.00057913    0.00066050    0.00110107
     atom    5 type  1   force =    -0.00054170   -0.00069543    0.00059825
     atom    6 type  1   force =    -0.00046928    0.00077831    0.00040840
     atom    7 type  1   force =    -0.00004638    0.00013041    0.00057924
     atom    8 type  1   force =    -0.00046400   -0.00082171   -0.00010499
     atom    9 type  1   force =    -0.00085497    0.00077196    0.00101916
     atom   10 type  1   force =    -0.00026991    0.00063059    0.00068395
     atom   11 type  1   force =     0.00083387    0.00149126   -0.00044030
     atom   12 type  1   force =    -0.00086031   -0.00108046   -0.00111700
     atom   13 type  1   force =    -0.00151936    0.00048986    0.00062039
     atom   14 type  1   force =    -0.00124419   -0.00017087    0.00072328
     atom   15 type  1   force =    -0.00031015    0.00080249    0.00070160
     atom   16 type  1   force =    -0.00057913   -0.00066050    0.00110107
     atom   17 type  1   force =    -0.00054170    0.00069543    0.00059825
     atom   18 type  1   force =    -0.00046928   -0.00077831    0.00040840
     atom   19 type  1   force =    -0.00004638   -0.00013041    0.00057924
     atom   20 type  1   force =    -0.00046400    0.00082171   -0.00010499
     atom   21 type  1   force =    -0.00085497   -0.00077196    0.00101916
     atom   22 type  1   force =    -0.00026991   -0.00063059    0.00068395
     atom   23 type  1   force =     0.00083387   -0.00149126   -0.00044030
     atom   24 type  1   force =    -0.00086031    0.00108046   -0.00111700
     atom   25 type  2   force =     0.00050547   -0.00120614    0.00168769
     atom   26 type  2   force =    -0.00159056   -0.00079921    0.00041248
     atom   27 type  2   force =    -0.00142350    0.00129305    0.00185164
     atom   28 type  2   force =    -0.00242542   -0.00063080    0.00141838
     atom   29 type  2   force =     0.00093393    0.00074685    0.00104311
     atom   30 type  2   force =    -0.00128006    0.00110398   -0.00116932
     atom   31 type  2   force =     0.00087329   -0.00164880   -0.00138774
     atom   32 type  2   force =     0.00082867    0.00043089   -0.00010662
     atom   33 type  2   force =     0.00050547    0.00120614    0.00168769
     atom   34 type  2   force =    -0.00159056    0.00079921    0.00041248
     atom   35 type  2   force =    -0.00142350   -0.00129305    0.00185164
     atom   36 type  2   force =    -0.00242542    0.00063080    0.00141838
     atom   37 type  2   force =     0.00093393   -0.00074685    0.00104311
     atom   38 type  2   force =    -0.00128006   -0.00110398   -0.00116932
     atom   39 type  2   force =     0.00087329    0.00164880   -0.00138774
     atom   40 type  2   force =     0.00082867   -0.00043089   -0.00010662
     atom   41 type  3   force =     0.00073410   -0.00075178    0.00077499
     atom   42 type  3   force =     0.00013824    0.00053242    0.00016658
     atom   43 type  3   force =     0.00073410    0.00075178    0.00077499
     atom   44 type  3   force =     0.00013824   -0.00053242    0.00016658
     atom   45 type  4   force =     0.00424073    0.00657024   -0.01254227
     atom   46 type  4   force =     0.00424073   -0.00657024   -0.01254227
     atom   47 type  5   force =    -0.00070839    0.00012851    0.00042975
     atom   48 type  5   force =     0.00354828    0.00020913    0.00191218
     atom   49 type  5   force =     0.00399685    0.00027328    0.00100550
     atom   50 type  5   force =    -0.00204615   -0.00315718   -0.00026939
     atom   51 type  5   force =    -0.00070839   -0.00012851    0.00042975
     atom   52 type  5   force =     0.00354828   -0.00020913    0.00191218
     atom   53 type  5   force =     0.00399685   -0.00027328    0.00100550
     atom   54 type  5   force =    -0.00204615    0.00315718   -0.00026939

     Total force =     0.025547     Total SCF correction =     0.000130

     Computing stress (Cartesian axis) and pressure

     Performing spin-balanced Ecnl calculation!

     Performing spin-balanced Ecnl stress calculation!
          total   stress  (Ry/bohr**3)                   (kbar)     P=       21.22
   0.00020019   0.00000000   0.00000476           29.45        0.00        0.70
   0.00000000   0.00009428   0.00000000            0.00       13.87        0.00
   0.00000476   0.00000000   0.00013823            0.70        0.00       20.33

     Writing output data file /nfs/hpc/share/gantzlen/NiPyC2_vdw-df2_vc-relax.save/

     General routines

     Parallel routines

   This run was terminated on:  11:28:49  17Nov2020

   JOB DONE.
QE finished Tue Nov 17 11:28:49 PST 2020